7
energy = -885.9664291250001
C 3.11032200 1.88540900 -0.52921400
F 3.41212300 3.16153600 -0.47199500
F 2.83356100 1.55979300 -1.77929100
F 4.16777800 1.17790300 -0.15327300
S 1.39294200 0.14237200 0.43458700
O 0.37282800 -0.00561400 -0.59624900
O 2.05018500 1.66984400 0.29867700
7
energy = -885.9664092630001
C 1.24137100 2.59966400 -0.67722400
F 1.88535700 3.68087100 -0.30381100
F -0.03287200 2.71835900 -0.35012900
F 1.31045000 2.49441200 -1.99791600
S 1.24380600 -0.00806200 -0.32606100
O 0.16624300 -0.25643400 0.62353600
O 1.82606300 1.53334800 -0.06319900
7
energy = -885.9664172330001
C 2.15111900 2.24674200 1.17817200
F 2.53757100 3.47051100 0.90240700
F 3.08111500 1.66111900 1.92137800
F 1.03885100 2.29212900 1.88944300
S 1.46035700 0.00177400 -0.00505800
O 0.00270500 -0.00498800 0.00695300
O 1.97302300 1.58962100 -0.00173300
