8
energy = -886.5651909420002
C -0.83105000 1.00564800 -0.83531700
F -2.03460700 0.73405100 -0.37635200
F -0.76530200 0.62818900 -2.10269100
F -0.64057000 2.31245300 -0.79140000
S 1.68047200 0.52553100 -0.37355300
O 0.06008000 0.32640300 -0.05779500
O 2.05517800 1.79132800 0.55928100
H 2.24286000 1.49936400 1.45876800
8
energy = -886.5651741839999
C -0.70902100 1.03543900 -0.69567200
F -1.84687400 0.81040100 -0.07296000
F -0.84806000 0.69836000 -1.96847200
F -0.44188500 2.32855100 -0.64609300
S 1.81143700 0.41008200 -0.62223800
O 0.24617100 0.28569200 -0.07470300
O 2.38851600 1.62704000 0.27106700
H 2.68996700 1.29998900 1.12649600
8
energy = -886.565779588
C -0.75302500 0.98716600 -0.76503300
F -1.93723000 0.94191200 -0.19797400
F -0.86780800 0.59643900 -2.02383900
F -0.33605700 2.25235400 -0.77822400
S 1.68817100 0.16191800 -0.48744300
O 0.08072200 0.18813200 -0.05075700
O 2.29866100 1.35925000 0.40754000
H 2.21677600 2.20184900 -0.05434000
8
energy = -886.5652250620001
C -0.60101700 -1.00297100 -0.55757700
F -1.91698600 -0.97517000 -0.53567600
F -0.20001400 -2.25113600 -0.37220800
F -0.18404100 -0.61642300 -1.75039100
S 1.47757200 0.02929100 0.61032500
O -0.16328000 -0.17789400 0.43616800
O 1.76555800 1.28753300 -0.36225200
H 1.58926900 2.11473800 0.10058500
8
energy = -886.565186751
C -0.52781900 -0.91971300 -0.53018300
F -1.82431700 -0.71238700 -0.43472200
F -0.29156000 -2.21189200 -0.36444300
F -0.12908900 -0.58756800 -1.74540500
S 1.73388600 -0.19275900 0.52181800
O 0.07338300 -0.16688000 0.43514500
O 2.14517100 1.01436100 -0.47162800
H 2.11059600 1.85739400 -0.00512200
8
energy = -886.5657525710001
C -0.53442700 -0.91536500 -0.54665000
F -1.84756400 -0.91621400 -0.50629300
F -0.10358300 -2.16145100 -0.43728700
F -0.14610800 -0.46390100 -1.73840300
S 1.55138200 0.15665700 0.55615700
O -0.08790300 -0.12460100 0.46290700
O 1.71804800 1.47315000 -0.36420600
H 1.84036700 1.22574500 -1.28826000
8
energy = -886.5658392330001
C -0.68402000 -0.02384000 1.18340000
F -1.97483700 -0.04897500 0.94022200
F -0.39719500 1.09858300 1.84134500
F -0.38019000 -1.03625900 1.97906900
S 1.62398700 0.05937200 0.00825600
O -0.03511400 -0.09080300 -0.00751300
O 1.81678100 1.65638800 -0.13383100
H 1.79765000 2.07724100 0.73366400
8
energy = -886.5657358990001
C -0.53779300 0.04940100 1.18394700
F -1.82776300 0.23273400 1.01547300
F -0.05291300 1.06734800 1.89367900
F -0.35269400 -1.05081200 1.89499800
S 1.69657600 -0.12550400 -0.11719700
O 0.03518300 -0.02783400 -0.04461500
O 2.12121600 1.43167200 -0.16868300
H 2.20844100 1.78729000 0.72349400
8
energy = -886.56516676
C -0.63926400 0.01258300 1.20447000
F -1.93225400 0.05299500 0.96048600
F -0.30836400 1.06187900 1.93627600
F -0.37487600 -1.07507800 1.91155100
S 1.66167500 -0.00127600 -0.00230900
O -0.00128100 0.00078700 -0.00087400
O 2.00364300 1.57853500 0.00126300
H 1.98093100 1.92733500 -0.89726200
