9
energy = -961.666179868
C 0.21211100 0.71900900 -2.93993300
F 0.10375600 -0.28143600 -3.78670400
F 0.26062600 1.85216600 -3.62081800
F -0.86628100 0.75079500 -2.17485800
S 1.75038600 1.62649700 -1.04565300
O 1.70478700 0.07119300 0.95010200
O 1.34959900 0.51396800 -2.21445500
O 0.96628600 1.09857200 0.23544100
H 1.13664700 -0.69612000 0.79951200
9
energy = -961.6661811480001
C -0.65194600 1.12999900 2.37579400
F -0.30309500 -0.14545600 2.40914100
F -1.89378900 1.24271600 2.79394700
F 0.13997400 1.78939100 3.20532700
S 0.85667800 1.63169600 0.31476700
O 0.17943100 0.18264700 -1.64662100
O -0.60219100 1.64196000 1.11182500
O 0.87942400 0.19625500 -0.37314300
H -0.56698600 -0.39382100 -1.43517600
9
energy = -961.6654046860001
C 4.00026200 0.17848600 0.42753000
F 3.51990000 -0.84966800 -0.24798700
F 4.88332100 -0.25496600 1.29920400
F 4.60870100 0.98076000 -0.43328900
S 1.75789600 1.48368200 0.28865400
O -0.06860000 0.13208800 1.39297400
O 3.02898800 0.83477900 1.12799400
O 0.73878500 0.26799900 0.18588800
H -0.94925400 0.06665600 1.00053700
9
energy = -961.6662186960001
C 1.44487200 4.20158700 -0.27368300
F 0.66705200 5.06910300 -0.88369400
F 2.61280200 4.77258300 -0.02913700
F 0.89928100 3.87970300 0.88745600
S 2.50590400 1.84540000 -0.58675300
O 0.70930100 0.06287100 -0.59430200
O 1.57074100 3.12128000 -1.09774400
O 1.48009000 0.96051700 0.24942500
H -0.17708300 0.43327500 -0.48782800
9
energy = -961.6653597700001
C 1.68472600 4.25151000 0.38356500
F 1.63086200 5.05732600 1.42046500
F 1.80193400 4.97961000 -0.71688500
F 2.76083600 3.49219500 0.48252700
S 0.32094700 2.39259700 -0.81498300
O 0.16523200 0.36595300 0.68474400
O 0.53349900 3.51730600 0.38164600
O 1.03665800 1.10219800 -0.22417900
H 0.27676100 -0.52875800 0.33713600
9
energy = -961.6653584590001
C 2.19770700 4.15320000 -0.10527100
F 3.35032400 4.58548700 -0.56570600
F 1.66420100 5.09381600 0.65988100
F 1.37854400 3.94447400 -1.11996100
S 1.16630200 2.21791300 1.28854500
O 1.43098400 0.04429600 0.02915700
O 2.44664000 3.01099700 0.60039100
O 0.65532400 1.27679000 0.11410900
H 0.71457700 -0.60240800 -0.01892200
9
energy = -961.6647888470001
C 4.10030800 0.45622900 0.29941700
F 5.12090600 0.94838200 0.96701300
F 4.54524900 -0.46855600 -0.53836500
F 3.27186700 -0.12478800 1.14426400
S 2.20988400 1.19593300 -1.33620900
O 0.51195700 0.40884400 0.37892200
O 3.51596300 1.49797300 -0.36439300
O 0.97600000 1.55107600 -0.40107000
H -0.43602200 0.45765000 0.19777300
9
energy = -961.6659863380002
C 0.06522300 1.31070300 -2.72023700
F 0.55529500 1.85258300 -3.81151300
F -1.11129500 0.77798400 -2.99385600
F 0.87569100 0.32262900 -2.34157800
S -0.70034500 1.93516400 -0.30059100
O 0.76419100 0.04201200 0.56546000
O -0.00873000 2.28513000 -1.77553400
O 0.54551700 1.47398500 0.57931000
H 1.45174900 -0.03923500 -0.11014200
9
energy = -961.6659307840001
C -0.53765800 1.32770600 2.46871500
F -1.44699000 2.10551000 3.01018700
F -0.19331200 0.39634100 3.33875300
F -1.08105500 0.71516900 1.41771200
S 1.88460500 1.40131500 1.48863100
O 1.01126500 0.17718300 -0.56515200
O 0.50920200 2.11370700 2.10229400
O 1.61958700 1.40046100 -0.08252600
H 0.08047300 0.43522900 -0.61728500
9
energy = -961.665970676
C 1.70870000 1.22507500 -3.49670200
F 1.19199500 0.93576200 -4.66876500
F 2.11685600 0.09116600 -2.92658600
F 2.77191800 1.98803700 -3.67026700
S 1.12244400 2.41738300 -1.24598900
O 1.90988900 0.32684900 -0.02431000
O 0.74246200 1.83385500 -2.76014000
O 0.77677000 1.18868400 -0.29202800
H 1.78189700 -0.36876900 -0.68450400
9
energy = -961.6653328680001
C -2.36769100 2.21742800 1.31754900
F -3.25498200 1.69002200 2.13115500
F -2.93365000 3.21850100 0.66006700
F -1.37094800 2.71278500 2.02847700
S -0.81595000 1.59526600 -0.67154200
O 0.95241100 -0.02800000 0.11515500
O -1.95626800 1.22782900 0.47143600
O 0.55333300 1.37504400 0.10482500
H 1.87432900 0.05715300 -0.16160700
9
energy = -961.6653305279999
C 4.03923500 0.91263100 2.44717200
F 4.89762200 -0.03741600 2.74383200
F 4.08764300 1.84123200 3.39070700
F 4.39563400 1.47589800 1.30704000
S 1.50904000 1.29317800 1.99612400
O 0.84323400 0.09789700 -0.12801500
O 2.80471600 0.33378200 2.37348200
O 1.50652900 1.28165700 0.40604700
H 0.24337500 0.51174900 -0.76261300
9
energy = -961.6661489540002
C 2.56875200 4.04390500 -1.76015300
F 1.88327400 5.15566100 -1.91436700
F 3.60546700 4.06328200 -2.58170900
F 3.03238400 3.99516100 -0.52236200
S 2.31623500 1.45776800 -1.91201900
O 0.74200400 0.61672600 -0.11764700
O 1.72482000 3.00681800 -2.03283700
O 2.08592600 1.10509100 -0.37667900
H 0.39133500 1.33516900 0.42555300
9
energy = -961.6653723810001
C -0.20939500 4.72235800 0.10316900
F 0.29214500 5.62929100 0.91143200
F -1.36927700 5.16085300 -0.36279900
F 0.60469200 4.56237800 -0.92436600
S -0.95959000 2.23531800 0.05912600
O 1.05125600 0.74655100 0.40740000
O -0.35888900 3.57385200 0.82658500
O 0.34011400 1.56752000 -0.56623800
H 1.17592300 -0.05949700 -0.11079000
9
energy = -961.6653980720001
C 2.87379100 4.07445700 1.66590800
F 3.53487000 4.97822800 0.97767200
F 3.31485800 4.08280500 2.91497700
F 1.59375000 4.39913700 1.68691800
S 2.36538000 1.52650800 1.70675600
O 0.98697300 0.91240100 -0.31879200
O 3.09057500 2.86864500 1.06301600
O 0.93850500 1.51947400 1.00671700
H 0.23614900 0.30749400 -0.25447200
9
energy = -961.66487074
C 4.54659200 1.24737600 -1.33281900
F 5.78328000 1.16787400 -0.89260000
F 4.55857000 1.79077900 -2.54084000
F 4.04709000 0.03208900 -1.43803600
S 2.25760600 2.34469500 -0.73965300
O 1.25973900 0.01467600 -0.61272100
O 3.85255700 2.01589400 -0.44111100
O 1.49666600 1.25088700 0.12486900
H 0.32173600 -0.11657900 -0.42090900
9
energy = -961.664846942
C -1.46414600 2.48611000 -2.32332900
F -1.55024900 2.72509500 -3.61367500
F -2.36137100 3.22829800 -1.69178400
F -1.75229500 1.21960800 -2.09873700
S 0.22659100 2.64842400 -0.34653200
O -0.04167800 0.14593500 -0.02339000
O -0.19031300 2.80106600 -1.94138800
O 0.91253600 1.21686500 -0.28936500
H 0.41991200 -0.31570100 0.68915000
9
energy = -961.6655760840001
C 0.76802500 1.94561400 3.45074500
F -0.10479800 2.39096600 4.32543100
F 1.97370000 1.98279300 3.98750700
F 0.48457000 0.67117000 3.18622000
S 1.73166000 2.48080200 1.08022100
O 1.29029300 0.05957800 0.42963900
O 0.66692800 2.72138700 2.33892700
O 0.96065700 1.44255400 0.14956700
H 0.54366100 -0.20545600 0.98461500
9
energy = -961.6648256540001
C -2.27147300 0.45131200 0.25504600
F -3.14991600 0.17265900 1.19329200
F -1.58011500 -0.63556300 -0.02497200
F -2.91979200 0.81768400 -0.84036200
S -0.29450300 2.07550000 -0.24314600
O 1.20117100 0.04407700 -0.52100500
O -1.48006700 1.45766100 0.73331900
O 1.00306300 1.28507700 0.22002200
H 2.13051600 0.14279500 -0.76662600
9
energy = -961.6648723940001
C 2.59985900 -0.44803300 2.62355100
F 3.72393600 -1.08385700 2.87185200
F 1.77325400 -1.26153000 1.99703100
F 2.04170400 -0.10417700 3.77463000
S 1.70897600 1.68943100 1.42781900
O 0.29640300 0.18121600 -0.04558800
O 2.91673200 0.64714400 1.87001600
O 1.33489000 1.20565100 -0.03824600
H -0.30227900 0.55505900 -0.70566000
9
energy = -961.6648730210001
C 0.79162500 3.66837900 -2.25486300
F 0.52548500 4.95614100 -2.23454600
F -0.31386000 2.99536000 -2.00452300
F 1.20555900 3.33797000 -3.46903000
S 2.34747400 1.90911400 -1.12294100
O 0.26642500 0.69880400 -0.31875800
O 1.75766900 3.44412000 -1.31465800
O 1.50296600 1.34971500 0.10049300
H 0.33294800 -0.12428800 0.18319800
9
energy = -961.665913114
C 0.09429700 3.63934700 1.78132500
F 0.65110300 4.63011800 2.43934700
F 0.46081600 2.49459400 2.35740300
F -1.21816700 3.73529300 1.88616000
S -0.09907500 2.64664800 -0.62916600
O 0.53610500 0.37833200 0.33668400
O 0.52282000 3.70933200 0.49344900
O 0.92863000 1.42999800 -0.57901400
H 1.04953200 0.60869300 1.12360200
9
energy = -961.6660009640001
C 3.75286000 2.90402800 0.25896500
F 4.26392600 3.94878300 -0.35109200
F 3.55098600 1.94656200 -0.64511800
F 4.62738000 2.44623600 1.13577500
S 1.74568000 2.21213400 1.78269200
O 1.24152500 0.32413200 0.15057200
O 2.58808800 3.29669000 0.83930800
O 0.73605700 1.54384000 0.74713700
H 1.58443500 0.65215100 -0.69240200
9
energy = -961.665380665
C 4.30472100 2.55000200 0.17453500
F 5.46446500 2.07496000 0.57030100
F 3.58822500 2.87795100 1.23440900
F 4.51323900 3.65180700 -0.53076000
S 2.19943700 1.88425400 -1.19469100
O 0.99252500 0.00120400 -0.02071800
O 3.70426700 1.57916000 -0.57476000
O 1.23088700 1.44012400 -0.01501800
H 0.02868100 -0.01052700 0.04735700
9
energy = -961.665360123
C 0.35520300 3.39210100 -2.57676700
F 0.12081400 3.27258300 -3.86445100
F 1.64253800 3.20003400 -2.35267800
F 0.05823100 4.62750700 -2.20194400
S -0.32294600 2.36764900 -0.28724700
O 0.46593100 -0.02890200 -0.17329900
O -0.42338200 2.47087000 -1.93672500
O 0.88857900 1.36313300 -0.06545600
H 0.87278400 -0.39085400 0.62497100
9
energy = -961.6661974150002
C 0.01771200 3.36733700 2.35111200
F -0.95684600 3.32040900 3.23297000
F -0.49292400 3.64669000 1.16330000
F 0.84380100 4.34724000 2.67854500
S 1.92953800 1.91308800 1.34865400
O 0.96698900 -0.00016600 0.00001200
O 0.63881300 2.15239600 2.36884200
O 1.23669700 1.42783000 -0.00001000
H 0.00046400 -0.00015000 -0.00048400
