9
energy = -961.770590612
C -0.87767700 1.07367300 -0.35904800
F -1.88293200 0.89878200 -1.18356800
F -0.43526000 2.33690500 -0.49711500
F -1.32321000 0.96610800 0.88644900
S 1.58757500 0.33997200 0.17731000
O 2.18956800 -0.93252500 -0.04808500
O 0.08698500 0.18301400 -0.63840000
O 2.28414900 1.30490600 -0.89312700
H 1.96157500 2.21317900 -0.80591500
9
energy = -961.7738763890002
C -0.61571700 1.02088800 -0.65541700
F -1.79597800 1.17307800 -0.09304900
F -0.79069200 0.67666300 -1.91505900
F 0.00767200 2.20303100 -0.64041100
S 1.73377400 -0.13689200 -0.13110800
O 2.04950400 0.17641900 -1.49895100
O 0.06932900 0.08511600 0.04393900
O 2.23082500 1.08277400 0.76450000
H 2.18194300 1.91944500 0.27495300
9
energy = -961.7744608400002
C -0.85794400 1.15586200 -0.46036300
F -2.04517300 0.63309500 -0.68284100
F -0.68986300 2.17319800 -1.29507500
F -0.83468800 1.64667000 0.77587000
S 1.60386800 0.30094000 0.10268400
O 2.25094500 -0.83443400 -0.48441700
O 0.07772700 0.19950400 -0.64672400
O 2.11673300 1.61630900 -0.63267900
H 2.28875300 1.45324300 -1.57393900
9
energy = -961.7703626730001
C -0.69850200 -1.01656700 -0.60201600
F -1.96673500 -0.74360500 -0.81509600
F -0.60145200 -1.68993900 0.54437100
F -0.26423400 -1.82146800 -1.56396300
S 1.70452500 0.05226200 -0.50618500
O 2.16681100 0.35524800 -1.82146100
O -0.00932600 0.14209100 -0.55508200
O 1.81562000 1.44099200 0.27796600
H 1.44406700 1.38003600 1.16849700
9
energy = -961.7743511720001
C -0.65983200 -0.94910000 -0.60058400
F -1.87912600 -0.47359900 -0.72671000
F -0.63870100 -1.79160300 0.42723100
F -0.35849200 -1.65187500 -1.68738700
S 1.86528700 -0.22869200 -0.45174800
O 2.28304900 0.23675600 -1.74294900
O 0.18594800 0.08565800 -0.41495500
O 2.18778300 0.90228000 0.61168600
H 2.08474200 1.78573200 0.22334400
9
energy = -961.7742849380002
C -0.70098300 -1.07226700 -0.61366900
F -1.96471100 -0.75031900 -0.78171800
F -0.59111800 -1.78520800 0.50274000
F -0.32062600 -1.85666100 -1.61647300
S 1.72933200 -0.06536800 -0.57586000
O 2.09255200 0.26923100 -1.92281200
O 0.02534200 0.06332800 -0.55376400
O 1.92224800 1.22462800 0.32549200
H 1.71831900 2.03206000 -0.17289000
9
energy = -961.770594153
C -0.68220500 -0.08571800 1.15588400
F -1.97402700 -0.01615800 0.93853800
F -0.32306800 0.97709600 1.89934600
F -0.43030300 -1.16071300 1.89213000
S 1.67837300 0.00684400 0.00458300
O 2.02808400 -0.42520500 -1.30820300
O -0.03357600 -0.10357500 -0.01901500
O 1.76509900 1.60375700 -0.06591800
H 1.56239600 2.00225800 0.79246200
9
energy = -961.7742980110002
C -0.67000500 -0.04375000 1.15672000
F -1.88961500 0.24212600 0.75700700
F -0.53093300 0.36329300 2.41445000
F -0.51562200 -1.36320700 1.15439400
S 1.86401300 0.19239300 0.48788600
O 2.11761600 -0.73404200 -0.57782700
O 0.20468200 0.57185700 0.33391600
O 2.32099800 1.63409300 0.01272900
H 2.16952400 1.75233100 -0.93857400
9
energy = -961.774749884
C -0.65532100 -0.05757000 1.18028500
F -1.94718900 -0.02535700 0.93831100
F -0.34528900 0.96095900 1.97464300
F -0.37479100 -1.17332900 1.84478700
S 1.70161400 0.00000000 0.00000000
O 1.97433500 -0.48082500 -1.32325100
O 0.00000000 0.00000000 0.00000000
O 1.89720700 1.57747500 0.00000000
H 1.65979200 1.95760700 -0.86095500
