9
energy = -961.7483746519999
C 2.76184500 2.16173500 -0.36914700
F 3.96718300 1.67531900 -0.53963400
F 2.84776800 3.36717800 0.13853600
F 2.16193600 2.23229300 -1.54963000
S 1.43551700 -0.04729900 0.09756100
O 0.97118500 -0.58950800 1.31847400
O 2.02586100 1.40666700 0.51058800
O 2.35760000 -0.69859700 -0.75987600
H 0.37742100 0.37575500 -0.63579500
9
energy = -961.7483809729999
C 0.91747400 2.43479800 -0.87493100
F 1.44031400 2.30373000 -2.06991700
F 1.09533400 3.66395000 -0.45551300
F -0.38313300 2.18881000 -0.95141700
S 1.25263200 0.00672700 0.04704500
O 2.22396800 -0.50082200 0.94104100
O 1.52057100 1.60699800 0.03994900
O 1.08888500 -0.44452000 -1.28688700
H 0.04337500 0.01679900 0.65854500
9
energy = -961.74843092
C 1.44687700 2.35404300 1.14365900
F 0.32085100 2.05201200 1.77530800
F 1.40625200 3.61194500 0.77714000
F 2.45107100 2.17368900 1.96684400
S 1.35444600 0.00003900 -0.00007700
O 1.81046600 -0.53621700 1.23044200
O 1.58354900 1.60638400 -0.00012600
O 1.82573700 -0.41461300 -1.26740800
H -0.00073700 -0.00117800 -0.00375700
