9
energy = -961.668381199
C 2.50262500 2.14962300 -1.15824500
F 2.91138500 1.67315700 -2.31363700
F 3.25152700 3.17530900 -0.82856100
F 1.24714400 2.56984000 -1.30807400
S 1.45437100 0.04761100 0.04635100
O 2.06364000 -0.80289900 1.00596000
O 2.60268300 1.22142500 -0.16492500
O 1.18468100 -0.49936500 -1.32521600
H 0.21159700 0.32688100 -0.68290600
9
energy = -961.668382399
C 1.09933700 2.61146100 0.10034100
F 0.41977800 2.84185100 -1.00153700
F 1.76894600 3.69225300 0.42464500
F 0.22835900 2.34296000 1.07212500
S 1.53536000 0.00857300 0.03116000
O 2.69519200 -0.66984500 -0.42714900
O 1.99488900 1.59641800 -0.06150000
O 0.27892700 -0.09249400 -0.78397700
H 0.21249600 -0.16950900 0.64152500
9
energy = -961.668539417
C 2.93102000 2.00532400 0.87206500
F 2.71315000 1.54787900 2.09785100
F 2.88332000 3.31802900 0.89386200
F 4.13195600 1.62637300 0.49584000
S 1.46477400 0.00049600 0.00074000
O 2.62072000 -0.82492300 0.08305200
O 1.96662200 1.57599800 0.00261900
O 0.66850200 -0.00906600 -1.26650900
H -0.00113600 -0.00155400 -0.00350000
