4
energy = -549.014759056
S 1.42549700 0.02550500 -0.41951300
O 0.20717600 0.16983200 0.38375300
O 2.39564300 1.29048700 -0.10747800
H 2.15006800 1.69626500 0.73573500
4
energy = -549.0147088480002
S 1.46300200 0.01564700 0.27860700
O 0.10096200 0.12904400 -0.25196400
O 2.26853500 1.37896200 -0.08408600
H 1.85120700 1.82212700 -0.83588800
4
energy = -549.01471838
S 1.46639900 0.00000000 0.00000000
O 0.00000000 0.00000000 0.00000000
O 1.97672300 1.54220800 0.00000000
H 1.26630200 2.12596700 0.30083400
