30

C -1.04629700 0.13105500 -0.50472900
C -0.37462000 -0.32249200 0.77194500
C 1.01986000 -0.91147000 0.60666300
C 2.05401300 0.00595900 -0.00774400
C 3.44113100 -0.58276300 0.15143900
F 3.77155900 -0.71443000 1.46857700
F 3.49191600 -1.84135600 -0.37482700
S 4.60715600 0.52150600 -0.71615700
O 4.47850300 0.39708700 -2.15003900
O 4.68133900 1.81903000 -0.07773200
O 5.99698800 -0.24399400 -0.37388200
F 1.77626100 0.18092800 -1.32745500
F 1.97605900 1.23112300 0.56915400
F 1.44203200 -1.30086000 1.84714700
F 0.94838500 -2.06643700 -0.11998000
F -1.14228600 -1.28546100 1.36393000
F -0.34020400 0.70940500 1.65896000
C -2.44177200 0.72015700 -0.34616500
C -3.47224600 -0.20355400 0.25989100
C -4.86159100 0.39079400 0.10163100
F -4.96615700 1.60331800 0.68605000
F -5.21758400 0.53419900 -1.19718000
F -5.79854900 -0.40526300 0.67367200
F -3.21108300 -0.40443000 1.57796100
F -3.41039500 -1.43028300 -0.33149400
F -2.37213500 1.86819300 0.38567300
F -2.85779800 1.11288600 -1.58730900
F -0.27633800 1.09051800 -1.09363200
F -1.08002500 -0.90498800 -1.39224100
H 6.42837200 -0.51318100 -1.20409900


