9
energy = -961.7509590970002
C -0.07054600 -0.06215500 -0.06256200
F -0.54024600 0.42939100 -1.18558700
F -0.56946400 0.61498100 0.95493300
F -0.40521600 -1.32752400 0.04493700
S 1.79098200 0.06865500 -0.03190900
O 1.93831500 1.63449800 -0.10317200
O 2.26750700 -0.45970800 -1.25530500
O 2.21513200 -0.38300400 1.24869600
H 1.99960900 2.01101200 0.78582200
9
energy = -961.750905725
C 0.06156000 0.04483400 0.00002200
F -0.40351500 0.63229800 -1.07796000
F -0.28907400 0.74178400 1.06495800
F -0.42543900 -1.17136600 0.09045300
S 1.92333000 -0.05992200 -0.07778300
O 2.26367900 1.47663700 -0.11893900
O 2.25954900 -0.60368900 -1.34050000
O 2.35843900 -0.60222500 1.16328800
H 2.42337700 1.81377500 0.77359800
9
energy = -961.750937181
C 0.00000700 -0.00019900 -0.00024000
F -0.43353400 0.65768800 -1.05942100
F -0.45159000 0.57921200 1.08777000
F -0.42145500 -1.24292800 -0.05144300
S 1.86631600 -0.00022400 -0.00067500
O 2.12097300 1.55344900 0.00183900
O 2.27894100 -0.53959000 -1.25071500
O 2.28472400 -0.50211500 1.25469300
H 2.22407000 1.88242800 -0.90199800
