9
energy = -961.6415555489999
C 1.06347500 1.47363100 2.92651600
F 2.32066100 1.76268300 2.68823700
F 0.96498300 0.24674400 3.39751600
F 0.58447200 2.32024100 3.81965900
S -0.01435700 1.67146400 1.37135300
O 0.40340400 0.25657900 -0.60886100
O 0.23680600 3.01653600 0.89737400
O 1.01902200 0.61421400 0.62354900
H 0.89285300 0.80463600 -1.23792800
9
energy = -961.6415230160001
C 3.83626000 0.80265800 -1.16254200
F 3.39563900 1.55862600 -2.13993400
F 3.86002200 -0.45851900 -1.54420500
F 5.05946400 1.18023100 -0.83834400
S 2.78304600 0.99727900 0.40970500
O 0.39835000 0.35889700 0.38686800
O 2.75643300 2.41937700 0.68124700
O 1.47441300 0.58272300 -0.51733000
H -0.10154500 1.18279900 0.30324700
9
energy = -961.6376727900001
C -0.87856400 1.84924200 -1.67708300
F -1.45351200 2.75134100 -0.92205700
F -1.28694700 0.63929400 -1.30158300
F -1.22282200 2.04006600 -2.93670000
S 1.01611200 1.95149700 -1.53514500
O 1.21110400 0.04554100 0.07219400
O 1.27767200 3.37247900 -1.47576700
O 1.01171400 1.45289400 0.05830900
H 0.31995000 -0.27922900 0.26170600
9
energy = -961.6415310270002
C 1.04073700 3.89634300 0.60557900
F 0.65234400 4.17142500 -0.61687900
F 2.35705100 3.87652400 0.66642100
F 0.58319500 4.82432900 1.42626100
S 0.32639700 2.24275100 1.21756100
O 0.93175400 0.13838000 0.07633700
O -1.10455800 2.34475500 1.02012400
O 1.02443600 1.54581700 -0.11359800
H 0.18368300 -0.08677100 -0.49406100
9
energy = -961.6415253510002
C 2.68254400 3.51678600 0.36970500
F 1.86964400 3.92457800 1.31512800
F 2.30004000 4.00323600 -0.79388100
F 3.90504500 3.93978500 0.63531300
S 2.77951700 1.61840200 0.29098300
O 0.76347500 0.30016300 -0.25331600
O 3.12105300 1.19401000 1.63265900
O 1.13255600 1.62569800 0.11040300
H 0.42861000 -0.04639600 0.58537700
9
energy = -961.6394798150002
C 1.63899000 3.71053100 -0.97683500
F 2.89262800 3.65377400 -0.59681300
F 0.87909400 4.08262800 0.03774300
F 1.51855500 4.59350100 -1.95057600
S 1.02612400 2.04911700 -1.66917100
O 0.88186800 0.09269900 -0.15102800
O 1.95293900 1.71751800 -2.72653400
O 1.51095400 1.36839300 -0.23671600
H 0.27607600 0.22714700 0.58981300
9
energy = -961.640166823
C -1.40843300 1.72450300 0.41616300
F -1.85893200 0.66193400 1.03102300
F -1.36579300 1.50008500 -0.88929100
F -2.22908300 2.73838100 0.64109200
S 0.30631000 2.24633300 1.08432200
O 0.84438100 -0.04984200 0.10545500
O 0.32020100 1.71448500 2.42819700
O 1.18550800 1.33788600 0.05515600
H 0.54691900 -0.19224300 -0.80381500
9
energy = -961.6400415690001
C 2.68769500 0.75203500 2.06389300
F 2.96934200 -0.51947800 1.94581000
F 1.47112800 0.89453400 2.56993200
F 3.55456300 1.31466900 2.89112300
S 2.85261100 1.66505300 0.39069400
O 0.94335100 0.05075500 -0.12678800
O 3.78762000 0.84772300 -0.34840300
O 1.31446200 1.43134800 -0.09584900
H 0.21779200 0.04801800 0.51285600
9
energy = -961.6434008570001
C 2.25075500 0.88933900 -2.41997700
F 1.63837500 -0.20676800 -2.78816200
F 3.31207700 0.60056100 -1.69918300
F 2.63358300 1.55386900 -3.50209000
S 1.07678200 2.06226200 -1.47278300
O 0.96865900 -0.00070000 -0.00082900
O -0.23736900 1.72132500 -1.98726700
O 1.27649400 1.38979900 0.00041100
H -0.00048400 -0.00087500 -0.00168700
