9
energy = -959.2416258271301
C -1.79324500 1.49431100 0.68260500
F -1.91914400 0.14168300 0.46476200
F -1.95356800 2.21070300 -0.48800100
F -2.74397000 1.91139800 1.60991800
S -0.01760200 1.92974400 1.41474400
O 1.35125700 -0.14491600 0.07654900
O 0.29688200 0.71048600 2.41201400
O 0.76546900 1.21770900 -0.31205300
H 1.09421000 -0.29184800 1.04923900
9
energy = -959.24452474398
C 3.07095500 0.75282000 1.94091500
F 3.24599200 -0.60320600 1.78479700
F 1.92102300 1.03546800 2.64914600
F 4.16370000 1.27699900 2.64369500
S 3.10595200 1.69471100 0.17634500
O 0.99009400 0.00000000 0.00000000
O 3.85559800 0.66310500 -0.76195800
O 1.15673700 1.59087900 0.00000000
H 0.00000000 0.00000000 0.00000000
