5
energy = -624.1033282580001
S 0.17822100 2.37151100 0.97007500
O 0.83434900 0.09168600 0.28282800
O 0.37242400 3.73637900 0.49637300
O 0.95178700 1.42993400 -0.18361600
H 0.22607800 -0.28801200 -0.36449300
5
energy = -624.1033488260001
S 2.48771100 1.66581800 0.96395700
O 0.99373100 0.06600400 -0.18066000
O 2.77534300 3.09386800 0.91426700
O 1.24606600 1.46514300 -0.14736000
H 0.12154600 0.01502500 0.23145400
5
energy = -624.1033314299999
S 1.55159300 1.92517000 -1.56317400
O 0.95227700 0.03260600 -0.09348200
O 1.86686600 3.34114000 -1.42077000
O 1.21058700 1.42767500 0.00316200
H 0.00482100 -0.00368700 0.09144000
5
energy = -624.1082822750001
S 0.07008600 2.36126300 0.70350400
O 0.88905400 0.00666200 0.26907000
O -1.29325500 2.09246300 0.24307800
O 1.09907200 1.37966400 -0.09805900
H 0.27673000 -0.28635900 -0.41976300
5
energy = -624.108276524
S 2.61832200 1.57900700 0.83045000
O 0.89815600 0.10705600 -0.30094800
O 2.28523300 1.11846000 2.17944900
O 1.28408600 1.47673400 -0.10495100
H 0.25379100 -0.01617500 0.40959500
5
energy = -624.105847613
S 1.44293000 1.88115200 -1.61388900
O 0.82005400 -0.05924700 -0.11204600
O 2.66741000 1.34141900 -2.20109000
O 1.26920200 1.31363500 -0.09496100
H -0.04415500 0.03041000 0.31055900
5
energy = -624.105835893
S -0.07561900 2.29753500 0.86408300
O 0.65273400 -0.04521900 0.23946700
O 0.22975200 2.26560900 2.29284400
O 0.97984600 1.35017900 0.05897200
H 0.43726200 -0.29669900 -0.66817200
5
energy = -624.1058314559999
S 2.56177200 1.63292000 0.85981500
O 0.92292800 0.00029500 -0.16769700
O 3.78791200 1.19916700 0.19326500
O 1.28835900 1.39726300 -0.13176700
H 0.03666500 0.03764600 0.21526300
5
energy = -624.108265606
S 1.46087900 1.96094800 -1.52215600
O 0.96716700 -0.00024000 -0.00055700
O 0.18540000 1.86760600 -2.23472500
O 1.25454100 1.40715000 -0.00014400
H 0.00007400 -0.00045700 0.00150900
