7
energy = -885.966407788
C 1.25410900 2.59764200 0.68798400
F 1.89071500 3.68048200 0.30674300
F 1.34751100 2.48777200 2.00684300
F -0.02597800 2.71683100 0.38485000
S 1.24827600 -0.00810700 0.32587500
O 1.82792000 1.53375400 0.05970500
O 0.16031600 -0.25427200 -0.61246800
7
energy = -885.9664463820001
C 3.11863500 1.88154700 0.51643700
F 3.41656800 3.15919200 0.47386600
F 4.17156100 1.18246200 0.11312100
F 2.86248400 1.53632700 1.76562900
S 1.38817800 0.14970900 -0.44470100
O 2.04600300 1.67608300 -0.29769100
O 0.38425500 -0.01363100 0.59947800
7
energy = -885.9664154730001
C 2.14115600 2.25075400 -1.17746500
F 2.54259800 3.46883200 -0.89787900
F 1.01693400 2.31161000 -1.86843300
F 3.05296000 1.66417300 -1.94210000
S 1.45718200 -0.00032600 -0.00152800
O 1.97841400 1.58469100 -0.00031200
O -0.00053900 0.00033200 0.00204500
