9
energy = -961.6653732300001
C -0.20603500 4.72283600 -0.10055700
F 0.29465900 5.62967600 -0.90945100
F 0.60995300 4.56176800 0.92529700
F -1.36462800 5.16211000 0.36788000
S -0.95824500 2.23641600 -0.05602700
O 1.05070500 0.74610500 -0.40866400
O -0.35791500 3.57474400 -0.82413100
O 0.34209600 1.56732500 0.56661500
H 1.17586700 -0.06014800 0.10909000
9
energy = -961.6661486940002
C 2.57026200 4.04424200 1.75658100
F 1.88519900 5.15605400 1.91222800
F 3.03097400 3.99529700 0.51772400
F 3.60891000 4.06370100 2.57571000
S 2.31856500 1.45830800 1.91007200
O 0.74193200 0.61645800 0.11817400
O 1.72692900 3.00726300 2.03147900
O 2.08598000 1.10534900 0.37504400
H 0.38996600 1.33464700 -0.42452900
9
energy = -961.6662066460001
C 2.78269200 4.01173000 -1.58908800
F 3.30761100 4.91774700 -0.79334200
F 1.48890900 4.25428600 -1.71922100
F 3.33831000 4.11938300 -2.78478200
S 2.46921200 1.43782600 -1.81772000
O 0.92048600 0.57595800 -0.01091600
O 3.02099400 2.79164700 -1.02629900
O 0.97958300 1.28710200 -1.27698100
H 0.61246300 1.27949300 0.57581300
9
energy = -961.665334837
C -2.36490300 2.21811000 -1.32176000
F -3.25080900 1.69106800 -2.13710900
F -1.36677800 2.71345300 -2.03074900
F -2.93187000 3.21912000 -0.66505500
S -0.81684600 1.59513100 0.66996900
O 0.95263000 -0.02834800 -0.11380500
O -1.95522100 1.22823700 -0.47512300
O 0.55375500 1.37475900 -0.10397600
H 1.87414500 0.05669200 0.16430500
9
energy = -961.665644218
C 1.71629300 1.23561000 3.50267400
F 1.20287000 0.94745500 4.67681300
F 2.76701700 2.01707400 3.67177200
F 2.14173100 0.10529100 2.94120300
S 1.11262600 2.40891200 1.24654200
O 1.90320500 0.32127800 0.02271800
O 0.74072800 1.82564800 2.76209200
O 0.76764700 1.17987700 0.29322900
H 1.75198900 -0.39814500 0.65139100
9
energy = -961.6653438560002
C 4.04082700 0.91222300 -2.44396900
F 4.89725300 -0.03898600 -2.74261600
F 4.39677200 1.47040100 -1.30118300
F 4.09321100 1.84404100 -3.38402800
S 1.51097800 1.29711500 -1.99397900
O 0.84209900 0.09663000 0.12608600
O 2.80467500 0.33627100 -2.37418600
O 1.50785100 1.28084900 -0.40444900
H 0.24454200 0.50989300 0.76319400
9
energy = -961.6648470900001
C -1.46463100 2.48297400 2.32361300
F -1.55017800 2.72270900 3.61385700
F -1.75063500 1.21578500 2.10013800
F -2.36370800 3.22306400 1.69224000
S 0.22425500 2.64708800 0.34536700
O -0.03912900 0.14383600 0.02406600
O -0.19167900 2.79998000 1.94046000
O 0.91308100 1.21691000 0.28861900
H 0.42287300 -0.31728700 -0.68854100
9
energy = -961.664870666
C 4.54630700 1.24324000 1.33262700
F 5.78310600 1.16505500 0.89248300
F 4.04687600 0.02762600 1.43435000
F 4.55795400 1.78329200 2.54214900
S 2.25756500 2.34261100 0.74226400
O 1.25902600 0.01315800 0.61007400
O 3.85242000 2.01414600 0.44286300
O 1.49628000 1.25096600 -0.12470800
H 0.32078600 -0.11698800 0.41866200
9
energy = -961.6655778850002
C 0.76758200 1.94210600 -3.45083700
F -0.10477800 2.38816100 -4.32562900
F 0.48171100 0.66851500 -3.18471100
F 1.97307100 1.97623600 -3.98824100
S 1.73359000 2.47829400 -1.08145300
O 1.28837800 0.05852400 -0.42809100
O 0.66856800 2.71935200 -2.33988900
O 0.96128000 1.44238000 -0.14932800
H 0.54098500 -0.20576500 -0.98240500
9
energy = -961.6653488360001
C 1.68571100 4.25033100 -0.38417100
F 1.61975800 5.06162600 -1.41611100
F 2.75939600 3.49008100 -0.50084900
F 1.81806200 4.97254500 0.71843300
S 0.33416400 2.38741000 0.82234100
O 0.15710100 0.36819300 -0.68480000
O 0.53355000 3.51772800 -0.37137500
O 1.04074900 1.09894200 0.21681000
H 0.27288700 -0.52846100 -0.34364600
9
energy = -961.6662186540001
C 1.44300200 4.20075700 0.27204800
F 0.66566700 5.06833700 0.88258900
F 0.89578700 3.87770000 -0.88800000
F 2.61025300 4.77218400 0.02525700
S 2.50560100 1.84526200 0.58523000
O 0.70974600 0.06197600 0.59705000
O 1.57071700 3.12115900 1.09674400
O 1.47882800 0.95928700 -0.24862000
H -0.17700300 0.43173500 0.49139600
9
energy = -961.665358619
C 2.19891100 4.15165900 0.10752500
F 3.35313500 4.58300400 0.56480300
F 1.38317300 3.94122300 1.12461300
F 1.66292000 5.09368500 -0.65414800
S 1.16258400 2.21879400 -1.28601000
O 1.43206400 0.04283900 -0.03167400
O 2.44533400 3.01070000 -0.60103000
O 0.65599700 1.27538900 -0.11147000
H 0.71591900 -0.60410400 0.01706500
9
energy = -961.6661783970001
C -0.65516400 1.13426900 -2.37240100
F -0.30280100 -0.14004000 -2.41261300
F 0.13292000 1.79984600 -3.20070400
F -1.89835000 1.24544400 -2.78708400
S 0.85705800 1.63035100 -0.31268800
O 0.18867000 0.17003000 1.64342300
O -0.60380200 1.64037300 -1.10612600
O 0.88545500 0.19168500 0.36829200
H -0.55674700 -0.40744200 1.43101700
9
energy = -961.66619697
C 0.21360100 0.71746500 2.93958300
F 0.10834200 -0.28029500 3.78991500
F -0.86328300 0.74091100 2.17190500
F 0.25471100 1.85346600 3.61635000
S 1.74936600 1.62665500 1.04555000
O 1.70540700 0.07052600 -0.95010100
O 1.35382500 0.51578600 2.21764500
O 0.96443400 1.09470600 -0.23304400
H 1.13118900 -0.69476800 -0.81319500
9
energy = -961.6661912820001
C 3.87502900 0.10956600 -0.44970900
F 3.34372700 -0.82052400 0.32624700
F 4.62283000 0.89329200 0.30960600
F 4.64221900 -0.47132100 -1.34615200
S 1.79500700 1.66113400 -0.24679800
O -0.27434300 0.47792300 -1.09743500
O 2.92443100 0.81641800 -1.12715000
O 0.65846100 0.57669600 0.01241200
H -0.07994900 -0.41337300 -1.41674800
9
energy = -961.6659817490001
C 0.06258000 1.30909400 2.71994300
F 0.54936200 1.85022200 3.81305800
F 0.87416100 0.32138200 2.34278100
F -1.11469400 0.77616100 2.98972200
S -0.69561200 1.93533800 0.29851300
O 0.77389300 0.04488800 -0.56555400
O -0.00871100 2.28426500 1.77577500
O 0.55307500 1.47655200 -0.57845200
H 1.46015000 -0.03604800 0.11138800
9
energy = -961.6647866430001
C 4.09949900 0.45626600 -0.30164600
F 5.12045800 0.95014600 -0.96740700
F 3.27072600 -0.12117400 -1.14862800
F 4.54380000 -0.47182400 0.53281700
S 2.20963000 1.19108300 1.33669500
O 0.51049800 0.41234000 -0.38115000
O 3.51582200 1.49598200 0.36588700
O 0.97587800 1.55103000 0.40322200
H -0.43737000 0.46129100 -0.19945400
9
energy = -961.6658246600001
C -0.50137900 1.33743200 -2.49080800
F -1.37105200 2.13581800 -3.06652300
F -1.09255300 0.75382000 -1.44933300
F -0.16081700 0.38619600 -3.34060100
S 1.89365400 1.35049200 -1.44296500
O 0.92704400 0.17687200 0.59856000
O 0.55802100 2.09620200 -2.10314300
O 1.58512700 1.37586500 0.12003900
H 0.00404200 0.46486700 0.62726400
9
energy = -961.665917005
C 0.09367100 3.64046300 -1.78010100
F 0.65124100 4.63002700 -2.43928400
F -1.21880000 3.73916700 -1.88231600
F 0.45661700 2.49490900 -2.35682900
S -0.09651400 2.64773400 0.63058500
O 0.53345600 0.37868800 -0.33703500
O 0.52487700 3.70961400 -0.49306800
O 0.92919300 1.42955200 0.57829400
H 1.04552300 0.60868000 -1.12495600
9
energy = -961.6648681730001
C 0.79397600 3.66884700 2.25533400
F 0.52721900 4.95649100 2.23544100
F 1.21001000 3.33862900 3.46882000
F -0.31159300 2.99533600 2.00674100
S 2.34883900 1.91030800 1.12104200
O 0.26698900 0.69820900 0.32143500
O 1.75859700 3.44501000 1.31355000
O 1.50210500 1.34996500 -0.10049600
H 0.33382700 -0.12565800 -0.17920500
9
energy = -961.6660262760001
C 3.75254100 2.90545900 -0.26050000
F 4.26273400 3.94913900 0.35211800
F 4.62627900 2.45234100 -1.14052000
F 3.55426000 1.94453700 0.64072300
S 1.74341100 2.21441600 -1.78199700
O 1.24485700 0.32173600 -0.15361400
O 2.58593700 3.29781700 -0.83734300
O 0.73658100 1.54218400 -0.74628600
H 1.58896400 0.64822000 0.68946700
9
energy = -961.66480718
C -2.27164500 0.45392000 -0.26173700
F -3.14557400 0.17844300 -1.20507900
F -2.92522700 0.81738100 0.83158500
F -1.58222500 -0.63401300 0.01880200
S -0.29604300 2.07508300 0.25117500
O 1.19862200 0.04261900 0.52656600
O -1.47752900 1.46142200 -0.73296900
O 1.00338600 1.28660200 -0.21008100
H 2.12742700 0.13991300 0.77506100
9
energy = -961.6661637650001
C 2.29231600 -0.38294600 2.62952700
F 2.01051000 -0.79531700 3.84422100
F 3.58746100 -0.52412400 2.41579400
F 1.65371300 -1.16630400 1.76136400
S 2.20443400 1.75833000 1.13271000
O 1.00681700 0.38159200 -0.64233200
O 1.88412400 0.90992700 2.53025000
O 0.89692800 1.51327900 0.25574900
H 0.55317600 -0.30741400 -0.13710400
9
energy = -961.6648752340001
C 2.60065700 -0.44646400 -2.62505500
F 3.72363400 -1.08388600 -2.87422800
F 2.04401900 -0.09846800 -3.77563100
F 1.77196300 -1.25994100 -2.00128500
S 1.71316200 1.68980800 -1.42474200
O 0.29526500 0.18082900 0.04281600
O 2.91912700 0.64606700 -1.86838700
O 1.33613100 1.20288900 0.03949200
H -0.30311400 0.55404000 0.70352000
9
energy = -961.6653617780001
C 0.35331600 3.39234500 2.57681100
F 0.12133400 3.27255300 3.86490700
F 0.05280900 4.62696300 2.20221400
F 1.64073000 3.20326300 2.35064000
S -0.32651000 2.36610400 0.28859200
O 0.46842400 -0.02838000 0.17316900
O -0.42413500 2.46912500 1.93825300
O 0.88721600 1.36476200 0.06453400
H 0.87473800 -0.38926200 -0.62586100
9
energy = -961.6653811590002
C 4.30607900 2.54902000 -0.17263100
F 5.46499400 2.07414200 -0.57102000
F 4.51628300 3.64866600 0.53552800
F 3.58867500 2.88053600 -1.23078200
S 2.20179300 1.88112600 1.19710600
O 0.99195100 0.00251400 0.01905400
O 3.70566400 1.57655900 0.57458800
O 1.23152900 1.44124800 0.01726000
H 0.02804300 -0.00819800 -0.04827000
9
energy = -961.6661981050001
C 0.01916400 3.36680300 -2.35316500
F -0.95662700 3.32052600 -3.23369200
F 0.84643300 4.34499300 -2.68274300
F -0.48945700 3.64828400 -1.16498500
S 1.93026200 1.91070100 -1.35202300
O 0.96677400 0.00096800 0.00093600
O 0.63822900 2.15081800 -2.37037600
O 1.23891800 1.42850700 -0.00150800
H 0.00025400 0.00265500 0.00346400
