9
energy = -961.6300976410001
C 1.80535100 2.57326500 0.47050800
F 2.49383600 3.68876900 0.58111600
F 1.45023800 2.16678700 1.67162900
F 0.73107400 2.80420600 -0.24387300
S 2.40444500 0.04788500 -0.12169000
O 0.01407700 -0.13447400 0.04815400
O 2.63498700 1.66304800 -0.14954800
O 1.53344200 -0.30176900 -1.22638700
H -0.95052500 -0.12110000 -0.04937500
9
energy = -961.630125128
C 2.95577300 2.31930900 -1.14831800
F 3.44139800 3.48236700 -0.78488500
F 1.85881400 2.50343900 -1.84423200
F 3.84079400 1.69939200 -1.91159900
S 2.41980600 -0.00035700 0.00004800
O 0.00019300 0.00018500 0.00012100
O 2.70790200 1.60750200 -0.00006000
O 1.60317600 -0.34809800 -1.14285900
H -0.94631900 0.09126700 -0.18506800
