9
energy = -961.7744410050001
C 1.11482100 2.59433000 0.76273100
F 1.78963300 3.72265500 0.70189800
F 1.16794300 2.13424800 2.00975200
F -0.15662500 2.85636600 0.48954000
S 1.46475800 0.04284200 0.07250900
O -0.11689000 -0.02315400 -0.09418700
O 1.64566700 1.72473500 -0.12438900
O 2.07326300 -0.42135100 -1.13856400
H -0.38660200 0.17291300 -1.00577000
9
energy = -961.7744577980001
C 2.96493800 2.22810400 0.32170100
F 2.90338500 3.52848200 0.52453800
F 3.75958400 2.00345200 -0.70968200
F 3.52088800 1.65880200 1.39016500
S 1.38710300 0.10772500 0.34931400
O -0.09561900 0.27172000 -0.18229700
O 1.71113900 1.76963100 0.10707100
O 2.16991100 -0.57863400 -0.63852800
H -0.11295200 0.47513100 -1.13104200
9
energy = -961.7744809170001
C 1.79312600 2.45930500 -1.09789100
F 1.82065300 3.71962900 -0.71904900
F 0.64026100 2.24164700 -1.73658800
F 2.77165900 2.25643200 -1.95666300
S 1.57164800 0.02989700 -0.00683100
O -0.01718400 0.10903900 0.07553500
O 1.90861400 1.68335700 0.00639000
O 1.90947200 -0.45000400 -1.32009500
H -0.40472900 0.28094400 -0.79741800
9
energy = -961.769534475
C 1.00629600 2.42892000 0.65670700
F 1.68753000 3.50773700 0.97585900
F 0.72205000 1.76486200 1.79063400
F -0.14950500 2.80458100 0.13341200
S 1.66779700 -0.03032200 -0.12992200
O 0.07918000 -0.20434300 -0.29120200
O 1.71940300 1.67526200 -0.19686000
O 2.21395200 -0.37534700 -1.40051500
H -0.35073500 -0.26759400 0.57287100
9
energy = -961.7744662330001
C 2.86360800 2.17731700 0.27104300
F 2.66417300 3.47419600 0.38993700
F 3.64413500 1.96881600 -0.77443500
F 3.51434600 1.74805100 1.35139400
S 1.53523400 -0.09682200 0.49414700
O 0.02440000 -0.13026700 0.02031700
O 1.66223000 1.57131700 0.13814500
O 2.35157300 -0.75649500 -0.48466000
H -0.05132200 0.00847100 -0.93718400
9
energy = -961.7740523770001
C 1.68332800 2.31609200 -1.10464300
F 1.59291100 3.58906100 -0.78222700
F 0.54764700 1.95877000 -1.71122500
F 2.66389900 2.17019500 -1.97248900
S 1.71005400 -0.07113700 0.09530200
O 0.12201300 -0.13576900 0.20106100
O 1.88999700 1.60589700 0.02997300
O 2.07554300 -0.57608400 -1.20092600
H -0.29187200 -0.02660500 -0.66997000
9
energy = -961.769326523
C 1.07988700 2.58823600 0.65273300
F 1.80471800 3.67906900 0.77103300
F 0.91499600 2.06103000 1.87773900
F -0.12269800 2.93087500 0.21903000
S 1.59145500 0.04139800 0.06095800
O -0.00973500 -0.08707000 0.05128800
O 1.68669800 1.72811100 -0.18270700
O 2.01506000 -0.44677500 -1.20955500
H -0.36441200 -0.06234900 0.95062100
9
energy = -961.7704081660002
C 2.95938700 2.21414300 0.37920900
F 2.96417400 3.49876000 0.09966000
F 4.03002100 1.65112600 -0.16700500
F 3.07387000 2.07202400 1.69969600
S 1.65090300 -0.03199900 -0.03291500
O 0.05899500 0.05877200 0.08562900
O 1.80960000 1.67691900 -0.07838000
O 1.87697600 -0.49863400 -1.36207800
H -0.21555100 0.45224300 0.92504500
9
energy = -961.76957235
C 1.75559700 2.42722600 -1.12496500
F 1.76051200 3.69111900 -0.74530200
F 0.64528100 2.19434200 -1.80186700
F 2.78214900 2.22778400 -1.92863100
S 1.60880200 -0.00033500 0.00011600
O -0.00000600 0.00284400 -0.00181400
O 1.84360300 1.66320300 0.00026600
O 1.94512400 -0.50158300 -1.29703900
H -0.34754200 0.25458900 0.86424700
