9
energy = -961.6301273410002
C 1.79365300 2.60991300 0.33730100
F 2.47356000 3.73605400 0.32720700
F 1.41141900 2.35006900 1.57033600
F 0.73584700 2.74306000 -0.42503700
S 2.41363100 0.03525400 0.05748000
O 0.02130100 -0.14194100 0.19894400
O 2.64310800 1.63784500 -0.14711500
O 1.56717300 -0.44062000 -1.01885200
H -0.94120400 -0.14238200 0.08157900
9
energy = -961.630218499
C 3.35803400 2.06713300 0.61204700
F 4.24640100 3.03690000 0.63862300
F 3.79105000 1.06754600 1.35305700
F 2.22715900 2.51123000 1.10325200
S 2.60074200 0.27025200 -1.19901700
O 0.96907200 -0.20137900 0.49930000
O 3.22188300 1.69786800 -0.70909200
O 1.17209200 0.44067700 -1.37402500
H 0.23084000 -0.23598200 1.12696800
9
energy = -961.6301261120001
C 2.95558700 2.31959500 -1.14812500
F 3.44162900 3.48233300 -0.78423300
F 1.85824000 2.50435800 -1.84325900
F 3.84003800 1.70001700 -1.91234000
S 2.41974800 -0.00069300 -0.00098000
O 0.00012300 0.00053700 0.00064900
O 2.70829200 1.60708600 -0.00017600
O 1.60227500 -0.34740900 -1.14359800
H -0.94647600 0.09204000 -0.18388700
