%chk=F_TS4M_ADMP_600K.chk
%chk=F_TS4M_ADMP_600K.chk
%mem=8GB
%nprocshared=8
# B3LYP/6-31G(d) ADMP(TRJTRY)(RSTF=10) int=ultrafine

F_TS4M ADMP thermal decomposition simulation targeting 600K

0 2
F       0.000000      0.000000      0.000000

