9
IRC Reverse Point 31
C     0.086607     1.051008     1.375787
F    -0.779658     1.938336     1.748298
F    -0.460630     1.630978    -1.106957
F     1.230672     1.630899     1.199787
S    -0.277301    -2.150249    -0.807570
O     1.113182    -2.452187    -0.913675
O    -0.121577    -0.100178     1.262199
O    -0.779744    -1.040631    -1.571727
H    -0.597439     0.786730    -1.473262
9
IRC Reverse Point 30
C     0.086607     1.051008     1.375787
F    -0.779658     1.938336     1.748298
F    -0.460630     1.630978    -1.106957
F     1.230672     1.630899     1.199787
S    -0.277301    -2.150249    -0.807570
O     1.113182    -2.452187    -0.913675
O    -0.121577    -0.100178     1.262199
O    -0.779744    -1.040631    -1.571727
H    -0.597439     0.786730    -1.473262
9
IRC Reverse Point 29
C     0.086705     1.051261     1.375770
F    -0.779798     1.938104     1.748881
F    -0.461797     1.631566    -1.106556
F     1.230439     1.631710     1.199419
S    -0.277427    -2.150174    -0.807476
O     1.112482    -2.454827    -0.913472
O    -0.121005    -0.099995     1.261977
O    -0.777823    -1.040236    -1.572511
H    -0.597664     0.787297    -1.473152
9
IRC Reverse Point 28
C     0.087136     1.052060     1.375822
F    -0.781268     1.936732     1.749678
F    -0.463220     1.632632    -1.105912
F     1.229540     1.635169     1.199613
S    -0.278234    -2.150373    -0.807394
O     1.110373    -2.460729    -0.913812
O    -0.118029    -0.099584     1.261333
O    -0.774615    -1.039474    -1.573624
H    -0.597571     0.788272    -1.472823
9
IRC Reverse Point 27
C     0.087829     1.053310     1.376068
F    -0.784600     1.934241     1.749911
F    -0.463353     1.633640    -1.105525
F     1.228037     1.641276     1.201126
S    -0.279716    -2.151085    -0.807113
O     1.107330    -2.468116    -0.915908
O    -0.112573    -0.099188     1.260682
O    -0.772109    -1.038532    -1.573681
H    -0.596734     0.789159    -1.472679
9
IRC Reverse Point 26
C     0.083489     1.053277     1.377862
F    -0.776796     1.946963     1.747569
F    -0.465811     1.625190    -1.103648
F     1.230984     1.625457     1.199546
S    -0.272062    -2.144399    -0.801259
O     1.115011    -2.455351    -0.930759
O    -0.131546    -0.097176     1.267895
O    -0.780454    -1.040649    -1.568206
H    -0.588704     0.781392    -1.476120
9
IRC Reverse Point 25
C     0.095594     1.072896     1.379088
F    -0.809593     1.915588     1.768054
F    -0.487896     1.650926    -1.094333
F     1.214369     1.704786     1.210896
S    -0.311787    -2.167419    -0.802886
O     1.092566    -2.574291    -0.927703
O    -0.063166    -0.089588     1.245471
O    -0.722892    -1.020722    -1.600618
H    -0.593083     0.802530    -1.465089
9
IRC Reverse Point 24
C     0.095352     1.071585     1.378952
F    -0.807316     1.913766     1.767286
F    -0.488100     1.650220    -1.094513
F     1.212008     1.703761     1.211460
S    -0.291789    -2.162691    -0.814169
O     1.066107    -2.565521    -0.926286
O    -0.062789    -0.084708     1.246212
O    -0.716529    -1.035491    -1.591250
H    -0.592833     0.803784    -1.464812
9
IRC Reverse Point 23
C     0.093300     1.070078     1.375152
F    -0.792930     1.921129     1.787854
F    -0.548432     1.670468    -1.076371
F     1.212262     1.692773     1.174269
S    -0.287463    -2.146576    -0.804139
O     1.060045    -2.641037    -0.906162
O    -0.077640    -0.086984     1.249054
O    -0.645465    -1.008136    -1.620707
H    -0.599567     0.822990    -1.466070
9
IRC Reverse Point 22
C     0.082817     1.051986     1.377931
F    -0.774930     1.948517     1.746641
F    -0.464373     1.623961    -1.103983
F     1.231963     1.620786     1.199214
S    -0.270049    -2.143003    -0.801501
O     1.116050    -2.448789    -0.931208
O    -0.135427    -0.097768     1.269093
O    -0.783640    -1.041463    -1.566632
H    -0.588300     0.780480    -1.476675
9
IRC Reverse Point 21
C     0.081343     1.063018     1.385517
F    -0.775752     1.962260     1.757095
F    -0.432665     1.606005    -1.103777
F     1.230428     1.631225     1.201673
S    -0.269550    -2.147543    -0.813444
O     1.120010    -2.466465    -0.941849
O    -0.138455    -0.087720     1.279411
O    -0.773356    -1.037248    -1.585738
H    -0.627891     0.771173    -1.466008
9
IRC Reverse Point 20
C     0.093648     1.052663     1.373838
F    -0.773159     1.926086     1.778134
F    -0.523970     1.622962    -1.077732
F     1.225900     1.648064     1.174891
S    -0.283340    -2.111987    -0.793834
O     1.078152    -2.529766    -0.878243
O    -0.102887    -0.100714     1.252865
O    -0.692173    -1.014034    -1.628051
H    -0.608061     0.801431    -1.488987
9
IRC Reverse Point 19
C     0.103545     1.064264     1.384839
F    -0.847823     1.876271     1.708537
F    -0.403764     1.564368    -1.107563
F     1.199912     1.737540     1.268939
S    -0.311289    -2.117446    -0.795808
O     1.053055    -2.433674    -0.972886
O    -0.001914    -0.100658     1.263142
O    -0.839778    -1.030139    -1.545781
H    -0.537834     0.734180    -1.490539
9
IRC Reverse Point 18
C     0.081075     1.065680     1.382905
F    -0.844004     1.916625     1.715369
F    -0.209664     1.616691    -1.182472
F     1.214005     1.688325     1.284421
S    -0.267408    -2.157031    -0.774144
O     1.141627    -2.406612    -1.023540
O    -0.082438    -0.091438     1.242994
O    -0.912214    -1.071929    -1.520607
H    -0.706867     0.734394    -1.412046
9
IRC Reverse Point 17
C     0.093410     1.051873     1.372279
F    -0.764209     1.931863     1.785505
F    -0.537727     1.628841    -1.074685
F     1.229280     1.639048     1.163512
S    -0.280551    -2.111666    -0.792790
O     1.080638    -2.540134    -0.868084
O    -0.112780    -0.100335     1.251866
O    -0.677311    -1.012886    -1.636069
H    -0.616639     0.808100    -1.488655
9
IRC Reverse Point 16
C     0.082487     1.043537     1.378717
F    -0.762925     1.952589     1.748644
F    -0.456250     1.600921    -1.102109
F     1.238351     1.598203     1.190710
S    -0.285920    -2.127366    -0.782521
O     1.145176    -2.399819    -0.919543
O    -0.150269    -0.104607     1.276507
O    -0.808057    -1.025663    -1.586799
H    -0.588482     0.756910    -1.490726
9
IRC Reverse Point 15
C     0.082591     1.043819     1.378683
F    -0.761797     1.952032     1.748314
F    -0.457394     1.595101    -1.103056
F     1.236854     1.597713     1.190981
S    -0.266811    -2.115374    -0.795725
O     1.118726    -2.394866    -0.917378
O    -0.150108    -0.103706     1.276361
O    -0.800817    -1.040492    -1.575730
H    -0.587133     0.760477    -1.489570
9
IRC Reverse Point 14
C     0.081168     1.052332     1.380332
F    -0.766665     1.958365     1.764084
F    -0.378909     1.611614    -1.121218
F     1.236960     1.608979     1.198194
S    -0.267104    -2.148184    -0.810793
O     1.144676    -2.416508    -0.909501
O    -0.153543    -0.095380     1.264177
O    -0.803150    -1.049972    -1.592976
H    -0.679322     0.773459    -1.459420
9
IRC Reverse Point 13
C     0.095368     1.053270     1.371184
F    -0.764113     1.928680     1.791371
F    -0.550798     1.633234    -1.070336
F     1.228042     1.645577     1.158922
S    -0.279855    -2.109206    -0.794271
O     1.070200    -2.562508    -0.859926
O    -0.106640    -0.099586     1.247969
O    -0.656783    -1.010928    -1.643751
H    -0.621311     0.816171    -1.488282
9
IRC Reverse Point 12
C     0.086756     1.037246     1.354870
F    -0.706465     1.943217     1.833298
F    -0.556872     1.701917    -1.065130
F     1.233723     1.576233     1.086522
S    -0.257936    -2.095060    -0.793821
O     1.080477    -2.608370    -0.778914
O    -0.179293    -0.100796     1.231501
O    -0.525446    -1.007814    -1.696932
H    -0.760833     0.848133    -1.458514
9
IRC Reverse Point 11
C     0.092945     1.021634     1.345318
F    -0.640151     1.943640     1.877598
F    -0.749008     1.696798    -1.007919
F     1.228414     1.536163     0.995645
S    -0.261625    -2.074626    -0.820676
O     1.032280    -2.648258    -0.668643
O    -0.205454    -0.108593     1.239546
O    -0.381814    -0.993091    -1.748566
H    -0.701476     0.921039    -1.499423
9
IRC Reverse Point 10
C     0.096873     1.010835     1.354817
F    -0.620028     1.941839     1.912693
F    -0.756954     1.596786    -1.057738
F     1.229847     1.523005     0.993019
S    -0.273777    -1.996356    -0.823521
O     1.014917    -2.608894    -0.664914
O    -0.214351    -0.125397     1.240014
O    -0.382606    -0.806226    -1.687519
H    -0.679810     0.759112    -1.553971
9
IRC Reverse Point 9
C     0.095821     1.018278     1.322790
F    -0.586649     1.912492     1.968938
F    -0.812995     1.931586    -0.952803
F     1.239058     1.528570     0.988845
S    -0.206947    -2.235338    -0.801914
O     1.086626    -2.779254    -0.522086
O    -0.250501    -0.085728     1.110973
O    -0.312187    -1.230699    -1.831254
H    -0.838115     1.234799    -1.570609
9
IRC Reverse Point 8
C     0.097355     1.019319     1.310736
F    -0.568940     1.895556     1.999826
F    -0.838022     2.077551    -0.907787
F     1.244557     1.529662     0.988576
S    -0.176799    -2.334279    -0.788000
O     1.115238    -2.854671    -0.451928
O    -0.265174    -0.069472     1.052671
O    -0.273990    -1.426566    -1.901679
H    -0.920113     1.457605    -1.589536
9
IRC Reverse Point 7
C     0.100758     1.020060     1.298248
F    -0.546741     1.867312     2.038550
F    -0.864896     2.181841    -0.881780
F     1.247429     1.536940     0.982109
S    -0.159614    -2.391317    -0.780989
O     1.118560    -2.909169    -0.386974
O    -0.275740    -0.050581     0.992202
O    -0.224831    -1.562091    -1.954169
H    -0.980814     1.601711    -1.594317
9
IRC Reverse Point 6
C     0.106787     1.018656     1.280492
F    -0.522283     1.832190     2.068653
F    -0.892125     2.243616    -0.857813
F     1.250063     1.544551     0.967296
S    -0.156127    -2.414694    -0.784347
O     1.095607    -2.929777    -0.318761
O    -0.281617    -0.032676     0.932845
O    -0.163838    -1.646936    -1.994612
H    -1.022357     1.679776    -1.580873
9
IRC Reverse Point 5
C     0.106627     1.007931     1.236881
F    -0.514819     1.782838     2.063155
F    -0.904396     2.340826    -0.807852
F     1.249609     1.542804     0.942157
S    -0.144420    -2.460966    -0.771204
O     1.090564    -2.942933    -0.245832
O    -0.287788    -0.021682     0.844751
O    -0.115222    -1.755921    -2.010805
H    -1.066043     1.801809    -1.538372
9
IRC Reverse Point 4
C     0.106451     0.996174     1.189067
F    -0.506637     1.728729     2.057127
F    -0.917850     2.447406    -0.753076
F     1.249110     1.540888     0.914596
S    -0.131584    -2.511699    -0.756794
O     1.085035    -2.957358    -0.165873
O    -0.294555    -0.009629     0.748165
O    -0.061919    -1.875411    -2.028558
H    -1.113941     1.935605    -1.491775
9
IRC Reverse Point 3
C     0.095703     1.000126     1.210112
F    -0.538309     1.816217     2.022051
F    -0.907293     2.442501    -0.766681
F     1.241674     1.530185     0.910146
S    -0.115363    -2.541256    -0.750731
O     1.136699    -3.051249    -0.229731
O    -0.290100    -0.061305     0.838295
O    -0.102400    -1.788146    -1.999812
H    -1.106502     1.947632    -1.520769
9
IRC Reverse Point 2
C     0.106608     0.975226     1.103398
F    -0.491211     1.632083     2.046383
F    -0.942148     2.638055    -0.654933
F     1.248598     1.537501     0.864713
S    -0.108941    -2.602519    -0.730795
O     1.074997    -2.983208    -0.023004
O    -0.306352     0.012005     0.575452
O     0.032697    -2.089337    -2.060165
H    -1.200138     2.174899    -1.408169
9
IRC Reverse Point 1
C     0.107535     0.972790     1.070552
F    -0.494349     1.608690     2.032082
F    -0.951580     2.699522    -0.608247
F     1.250129     1.546287     0.842660
S    -0.101425    -2.635641    -0.724420
O     1.062442    -3.010402     0.023216
O    -0.302383     0.016153     0.519777
O     0.077605    -2.169867    -2.070850
H    -1.233864     2.267173    -1.371889
9
IRC Reverse Point 0
C     0.130053     0.977057     1.019137
F    -0.507883     1.520593     2.009241
F    -0.973186     2.768769    -0.545956
F     1.247182     1.611398     0.847712
S    -0.110111    -2.673389    -0.718143
O     1.010104    -3.038035     0.095783
O    -0.233242     0.047118     0.400844
O     0.134924    -2.294241    -2.077902
H    -1.283730     2.375436    -1.317836
9
IRC Forward Point 0
C     0.120271     1.107185     0.537768
F    -0.432810     0.996127     1.726103
F    -0.830033     1.446468    -0.334338
F     0.993812     2.084154     0.577726
S    -0.164586    -1.203544    -0.680887
O    -0.780732    -2.056643     0.268652
O     0.717589    -0.054135     0.136144
O     0.690885    -1.665866    -1.709667
H    -1.104363    -0.401854    -1.223638
9
IRC Forward Point 1
C     0.091047     1.104559     0.566865
F    -0.154528     0.840652     1.829354
F    -1.056164     1.435985    -0.015416
F     0.918417     2.115908     0.489173
S    -0.159352    -1.170279    -0.728475
O    -0.977580    -1.769182     0.262847
O     0.682776     0.039023    -0.058372
O     0.814349    -1.874384    -1.475788
H    -0.948930    -0.470391    -1.572324
9
IRC Forward Point 2
C     0.072828     1.106807     0.503920
F    -0.368523     0.584714     1.624562
F    -0.956143     1.662683    -0.131473
F     0.965673     2.026367     0.759505
S    -0.133481    -1.160880    -0.684087
O    -0.774061    -1.663385     0.477224
O     0.689133     0.186355    -0.303697
O     0.787317    -1.896481    -1.464512
H    -1.072708    -0.594288    -1.483579
9
IRC Forward Point 3
C     0.083710     1.111284     0.562382
F    -0.112606     0.713957     1.794148
F    -1.080016     1.507730     0.059429
F     0.924508     2.116485     0.558064
S    -0.161106    -1.169724    -0.731210
O    -0.999951    -1.655393     0.302355
O     0.644051     0.134083    -0.221285
O     0.844347    -1.942695    -1.356883
H    -0.932903    -0.563835    -1.669138
9
IRC Forward Point 4
C     0.082273     1.112066     0.561905
F    -0.094357     0.689799     1.790290
F    -1.089188     1.508502     0.081782
F     0.911703     2.127011     0.565017
S    -0.159169    -1.167990    -0.735839
O    -1.006170    -1.618249     0.307629
O     0.644171     0.146751    -0.234653
O     0.838926    -1.964350    -1.344114
H    -0.918154    -0.581648    -1.694154
9
IRC Forward Point 5
C     0.081987     1.110331     0.562270
F    -0.078175     0.678628     1.790320
F    -1.095619     1.502408     0.097046
F     0.903027     2.131858     0.562346
S    -0.159353    -1.164061    -0.737048
O    -1.017231    -1.598759     0.304739
O     0.644693     0.151721    -0.242656
O     0.838644    -1.971472    -1.330829
H    -0.907940    -0.588762    -1.708323
9
IRC Forward Point 6
C     0.082625     1.108479     0.561970
F    -0.069530     0.670333     1.789158
F    -1.098418     1.495168     0.102222
F     0.895074     2.136944     0.563828
S    -0.159434    -1.161640    -0.736919
O    -1.022689    -1.585487     0.305231
O     0.648900     0.156455    -0.248773
O     0.835067    -1.977994    -1.324338
H    -0.901562    -0.590366    -1.714516
9
IRC Forward Point 7
C     0.084443     1.104612     0.565012
F    -0.040823     0.667960     1.795635
F    -1.109044     1.470478     0.121472
F     0.879180     2.146904     0.551973
S    -0.161425    -1.157058    -0.739052
O    -1.044042    -1.564235     0.293610
O     0.652694     0.158378    -0.252120
O     0.832252    -1.988299    -1.306680
H    -0.883201    -0.586847    -1.731988
9
IRC Forward Point 8
C     0.085778     1.102965     0.564451
F    -0.044818     0.670881     1.795798
F    -1.106769     1.462199     0.111697
F     0.876749     2.148223     0.552523
S    -0.161383    -1.156313    -0.737095
O    -1.041505    -1.566789     0.296132
O     0.658652     0.156152    -0.248964
O     0.827886    -1.987866    -1.311837
H    -0.884556    -0.577561    -1.724842
9
IRC Forward Point 9
C     0.086541     1.102260     0.564751
F    -0.046865     0.675726     1.797207
F    -1.106161     1.456943     0.106915
F     0.877004     2.147883     0.550326
S    -0.161674    -1.156446    -0.736598
O    -1.040721    -1.570513     0.295765
O     0.660668     0.153188    -0.244990
O     0.827047    -1.986202    -1.314787
H    -0.885806    -0.570948    -1.720726
9
IRC Forward Point 10
C     0.086463     1.102452     0.564566
F    -0.049249     0.676635     1.796966
F    -1.105384     1.457865     0.104811
F     0.878123     2.147191     0.550783
S    -0.161480    -1.156821    -0.736409
O    -1.038951    -1.572387     0.296634
O     0.660753     0.152495    -0.243913
O     0.826971    -1.985424    -1.316716
H    -0.887213    -0.570114    -1.718858
9
IRC Forward Point 11
C     0.086463     1.102452     0.564566
F    -0.049249     0.676635     1.796966
F    -1.105384     1.457865     0.104811
F     0.878123     2.147191     0.550783
S    -0.161480    -1.156821    -0.736409
O    -1.038951    -1.572387     0.296634
O     0.660753     0.152495    -0.243913
O     0.826971    -1.985424    -1.316716
H    -0.887213    -0.570114    -1.718858
9
IRC Forward Point 12
C     0.086463     1.102452     0.564566
F    -0.049249     0.676635     1.796966
F    -1.105384     1.457865     0.104811
F     0.878123     2.147191     0.550783
S    -0.161480    -1.156821    -0.736409
O    -1.038951    -1.572387     0.296634
O     0.660753     0.152495    -0.243913
O     0.826971    -1.985424    -1.316716
H    -0.887213    -0.570114    -1.718858
