%chk=CF2O_800K_step0020.chk
%mem=8GB
%nprocshared=4
# B3LYP/6-31G(d) pop=full density=current

CF2O Time step 20

0 1
F       1.190609     -0.580865      0.045660
C       0.056549      0.071673     -0.047837
O       0.001854      1.333167     -0.082429
F      -1.227887     -0.586811      0.053953

