9
IRC Reverse Point 11
C    -0.217663     1.054472    -0.070485
F    -0.689975     2.100689     0.580650
F    -1.141132     0.630868    -0.914885
F     0.837291     1.434969    -0.764553
S     0.503779    -1.472653     0.455217
O    -0.990935    -2.034015     0.257296
O     0.105907     0.109607     0.856860
O     1.042335    -1.478380    -0.870263
H    -1.434981    -2.146942     1.108336
9
IRC Reverse Point 10
C    -0.217663     1.054472    -0.070485
F    -0.689975     2.100689     0.580650
F    -1.141132     0.630868    -0.914885
F     0.837291     1.434969    -0.764553
S     0.503779    -1.472653     0.455217
O    -0.990935    -2.034015     0.257296
O     0.105907     0.109607     0.856860
O     1.042335    -1.478380    -0.870263
H    -1.434981    -2.146942     1.108336
9
IRC Reverse Point 9
C    -0.217663     1.054472    -0.070485
F    -0.689975     2.100689     0.580650
F    -1.141132     0.630868    -0.914885
F     0.837291     1.434969    -0.764553
S     0.503779    -1.472653     0.455217
O    -0.990935    -2.034015     0.257296
O     0.105907     0.109607     0.856860
O     1.042335    -1.478380    -0.870263
H    -1.434981    -2.146942     1.108336
9
IRC Reverse Point 8
C    -0.218002     1.054038    -0.070341
F    -0.689584     2.100669     0.580710
F    -1.141646     0.631310    -0.914997
F     0.837436     1.433729    -0.764152
S     0.504301    -1.472790     0.454678
O    -0.990230    -2.034507     0.257570
O     0.104252     0.108756     0.856848
O     1.043050    -1.477625    -0.870721
H    -1.434951    -2.144966     1.108577
9
IRC Reverse Point 7
C    -0.218102     1.054143    -0.070641
F    -0.693686     2.096920     0.583522
F    -1.140555     0.629116    -0.914881
F     0.834955     1.439995    -0.764583
S     0.505882    -1.474082     0.455543
O    -0.991173    -2.034662     0.256955
O     0.111706     0.108582     0.854844
O     1.043951    -1.482998    -0.870023
H    -1.438352    -2.138399     1.107438
9
IRC Reverse Point 6
C    -0.215113     1.058172    -0.072184
F    -0.710178     2.092873     0.581052
F    -1.118101     0.637625    -0.940147
F     0.849193     1.457431    -0.742775
S     0.502878    -1.478523     0.447308
O    -0.991392    -2.042729     0.272335
O     0.103939     0.107819     0.849840
O     1.021348    -1.487900    -0.885974
H    -1.427946    -2.146154     1.128717
9
IRC Reverse Point 5
C    -0.219340     1.043153    -0.061949
F    -0.704059     2.081995     0.593909
F    -1.153806     0.588431    -0.879160
F     0.804836     1.448595    -0.786444
S     0.509684    -1.488080     0.459635
O    -0.985652    -2.001583     0.234282
O     0.153313     0.113731     0.861347
O     1.069856    -1.506407    -0.856684
H    -1.460205    -2.081220     1.073236
9
IRC Reverse Point 4
C    -0.221866     1.050111    -0.068681
F    -0.683392     2.099039     0.585935
F    -1.151170     0.635887    -0.912390
F     0.835543     1.421881    -0.761798
S     0.524160    -1.473716     0.445865
O    -0.986298    -2.059248     0.262750
O     0.083879     0.098399     0.855547
O     1.062686    -1.469371    -0.879502
H    -1.448916    -2.104368     1.110446
9
IRC Reverse Point 3
C    -0.212716     1.085351    -0.084159
F    -0.643854     2.152779     0.560835
F    -1.127757     0.728417    -0.968592
F     0.891039     1.403955    -0.729527
S     0.469286    -1.457246     0.445543
O    -0.949583    -2.191215     0.302168
O     0.001476     0.112962     0.843404
O     0.986175    -1.419407    -0.888270
H    -1.399439    -2.216983     1.156769
9
IRC Reverse Point 2
C    -0.236038     1.063559    -0.083352
F    -0.668355     2.115091     0.582000
F    -1.122494     0.741676    -0.999610
F     0.897045     1.378699    -0.678719
S     0.535339    -1.441192     0.439862
O    -0.912024    -2.123816     0.314183
O    -0.055939     0.057832     0.831619
O     0.959314    -1.472512    -0.925365
H    -1.382220    -2.120723     1.157554
9
IRC Reverse Point 1
C    -0.196764     1.153569    -0.103338
F    -0.589869     2.240627     0.525112
F    -1.123027     0.789756    -0.957565
F     0.913563     1.422967    -0.761350
S     0.597809    -1.329746     0.520000
O    -0.932562    -2.339326     0.338840
O     0.026325     0.188314     0.855860
O     0.835563    -1.466172    -0.877790
H    -1.516410    -2.461375     1.098403
9
IRC Reverse Point 0
C    -0.174507     1.210759    -0.116165
F    -0.539528     2.319586     0.488904
F    -1.122469     0.832290    -0.936614
F     0.925560     1.444777    -0.804554
S     0.614379    -1.264359     0.564432
O    -0.938524    -2.467888     0.352301
O     0.063690     0.267215     0.866749
O     0.751199    -1.471178    -0.835094
H    -1.565173    -2.672588     1.058213
9
IRC Forward Point 0
C    -0.165468     1.220319    -0.101097
F    -0.541614     2.338666     0.481275
F    -1.115206     0.844633    -0.944646
F     0.931306     1.449262    -0.801821
S     0.940806    -1.054633     0.603403
O    -0.959389    -2.589060     0.063497
O     0.008538     0.287210     0.875754
O     0.149113    -1.833258    -0.522195
H    -1.475116    -2.761639    -0.742636
9
IRC Forward Point 1
C    -0.132083     1.279794    -0.122572
F    -0.848511     2.181738     0.510513
F    -0.723203     0.999046    -1.276386
F     1.056330     1.790162    -0.391701
S     0.929948    -1.077519     0.274919
O    -0.808602    -2.895578     0.087207
O    -0.062849     0.184682     0.688701
O     0.040565    -1.986124    -0.675685
H    -1.678626    -2.574701    -0.183462
9
IRC Forward Point 2
C    -0.091992     1.367534    -0.128787
F    -0.822354     2.241960     0.527277
F    -0.625604     1.171275    -1.322948
F     1.118368     1.870719    -0.302039
S     0.868525    -1.046797     0.140607
O    -0.824281    -2.915545     0.251010
O    -0.075393     0.225837     0.624303
O    -0.119534    -2.003493    -0.649617
H    -1.654764    -3.009990    -0.228272
9
IRC Forward Point 3
C    -0.117832     1.257855    -0.118587
F    -1.001311     2.044152     0.454296
F    -0.539812     0.952880    -1.336597
F     1.024571     1.914488    -0.240036
S     0.959809    -1.093521     0.129299
O    -0.820533    -2.885930     0.075135
O     0.008730     0.158854     0.677301
O    -0.044660    -1.966831    -0.741121
H    -1.695990    -2.480448     0.011845
9
IRC Forward Point 4
C    -0.126808     1.264796    -0.118411
F    -0.935324     2.113952     0.478643
F    -0.631457     0.952875    -1.299302
F     1.040688     1.854885    -0.317263
S     0.966016    -1.078297     0.194147
O    -0.812414    -2.878523     0.082941
O    -0.008663     0.174121     0.692962
O    -0.016130    -1.951579    -0.703751
H    -1.702939    -2.550729    -0.098433
9
IRC Forward Point 5
C    -0.128879     1.262755    -0.119738
F    -0.944579     2.106286     0.474546
F    -0.619383     0.960336    -1.310281
F     1.040394     1.854111    -0.300322
S     0.957875    -1.083037     0.191192
O    -0.808844    -2.891547     0.061672
O    -0.023385     0.164972     0.684018
O    -0.010177    -1.961461    -0.718035
H    -1.690052    -2.510915    -0.051519
9
IRC Forward Point 6
C    -0.126364     1.267178    -0.119758
F    -0.941786     2.108937     0.476972
F    -0.617066     0.967244    -1.311036
F     1.042738     1.859322    -0.299743
S     0.956319    -1.080643     0.185132
O    -0.807849    -2.891085     0.076227
O    -0.021056     0.168560     0.682687
O    -0.016556    -1.962920    -0.714235
H    -1.695411    -2.535092    -0.064710
9
IRC Forward Point 7
C    -0.127044     1.265879    -0.119699
F    -0.941966     2.108683     0.476361
F    -0.618443     0.964558    -1.310239
F     1.042156     1.857459    -0.300904
S     0.956914    -1.080922     0.187360
O    -0.808101    -2.891034     0.072113
O    -0.021395     0.168113     0.683847
O    -0.014878    -1.961809    -0.714800
H    -1.694273    -2.529426    -0.062505
9
IRC Forward Point 8
C    -0.127044     1.265879    -0.119699
F    -0.941966     2.108683     0.476361
F    -0.618443     0.964558    -1.310239
F     1.042156     1.857459    -0.300904
S     0.956914    -1.080922     0.187360
O    -0.808101    -2.891034     0.072113
O    -0.021395     0.168113     0.683847
O    -0.014878    -1.961809    -0.714800
H    -1.694273    -2.529426    -0.062505
9
IRC Forward Point 9
C    -0.127044     1.265879    -0.119699
F    -0.941966     2.108683     0.476361
F    -0.618443     0.964558    -1.310239
F     1.042156     1.857459    -0.300904
S     0.956914    -1.080922     0.187360
O    -0.808101    -2.891034     0.072113
O    -0.021395     0.168113     0.683847
O    -0.014878    -1.961809    -0.714800
H    -1.694273    -2.529426    -0.062505
