9
IRC Reverse Point 24
C    -1.302999     1.120194     0.896682
F    -1.993333     0.081053     1.375729
F    -1.760193     1.333847    -0.341487
F    -1.589175     2.177051     1.629241
S     1.202286    -2.312998    -1.698813
O     2.369656    -1.949330    -2.434248
O     0.012423     0.917916     0.925023
O     0.729212    -1.409852    -0.689255
H     0.250255     0.145953     0.389984
9
IRC Reverse Point 23
C    -1.302999     1.120194     0.896682
F    -1.993333     0.081053     1.375729
F    -1.760193     1.333847    -0.341487
F    -1.589175     2.177051     1.629241
S     1.202286    -2.312998    -1.698813
O     2.369656    -1.949330    -2.434248
O     0.012423     0.917916     0.925023
O     0.729212    -1.409852    -0.689255
H     0.250255     0.145953     0.389984
9
IRC Reverse Point 22
C    -1.302999     1.120194     0.896682
F    -1.993333     0.081053     1.375729
F    -1.760193     1.333847    -0.341487
F    -1.589175     2.177051     1.629241
S     1.202286    -2.312998    -1.698813
O     2.369656    -1.949330    -2.434248
O     0.012423     0.917916     0.925023
O     0.729212    -1.409852    -0.689255
H     0.250255     0.145953     0.389984
9
IRC Reverse Point 21
C    -1.301210     1.118001     0.892939
F    -1.986734     0.074194     1.368423
F    -1.753334     1.329830    -0.346866
F    -1.596057     2.172687     1.625244
S     1.189514    -2.305263    -1.701461
O     2.361084    -1.948423    -2.433621
O     0.015382     0.924477     0.926025
O     0.731662    -1.408379    -0.679334
H     0.257824     0.146710     0.401508
9
IRC Reverse Point 20
C    -1.299162     1.113743     0.884216
F    -1.994123     0.069496     1.345342
F    -1.716093     1.317594    -0.368764
F    -1.618352     2.170747     1.602811
S     1.184781    -2.304027    -1.679592
O     2.304284    -1.933571    -2.483111
O     0.016699     0.925016     0.955987
O     0.764586    -1.399703    -0.647947
H     0.275512     0.144539     0.443914
9
IRC Reverse Point 19
C    -1.297069     1.110207     0.879682
F    -2.001228     0.071261     1.339261
F    -1.693262     1.302256    -0.382016
F    -1.627135     2.174332     1.582640
S     1.181385    -2.298998    -1.670554
O     2.273330    -1.921120    -2.507839
O     0.017086     0.920122     0.975427
O     0.780735    -1.393296    -0.632375
H     0.284290     0.139071     0.468630
9
IRC Reverse Point 18
C    -1.294833     1.106988     0.876481
F    -2.005484     0.073388     1.338420
F    -1.679165     1.288422    -0.390717
F    -1.630100     2.177774     1.566755
S     1.175698    -2.291439    -1.667433
O     2.255930    -1.911475    -2.518822
O     0.017852     0.915114     0.986624
O     0.788645    -1.387842    -0.622223
H     0.289589     0.132905     0.483770
9
IRC Reverse Point 17
C    -1.295247     1.105989     0.875418
F    -2.012495     0.072253     1.326952
F    -1.667439     1.292317    -0.395035
F    -1.635900     2.175043     1.565823
S     1.186026    -2.297793    -1.649435
O     2.231137    -1.911211    -2.540566
O     0.015782     0.911134     0.997581
O     0.803988    -1.378534    -0.616126
H     0.292282     0.134636     0.488244
9
IRC Reverse Point 16
C    -1.294310     1.105212     0.875094
F    -2.013272     0.075379     1.332742
F    -1.665965     1.283797    -0.396924
F    -1.634270     2.179145     1.558162
S     1.181563    -2.293095    -1.655286
O     2.233627    -1.906282    -2.538053
O     0.016341     0.909341     0.999425
O     0.801473    -1.380630    -0.615245
H     0.292947     0.130967     0.492940
9
IRC Reverse Point 15
C    -1.290472     1.101865     0.873911
F    -2.017326     0.092465     1.363436
F    -1.660465     1.241652    -0.404108
F    -1.624465     2.199530     1.520916
S     1.161107    -2.269758    -1.685859
O     2.249457    -1.883559    -2.523795
O     0.018681     0.900744     1.007230
O     0.787669    -1.392165    -0.613916
H     0.293946     0.113059     0.515041
9
IRC Reverse Point 14
C    -1.287487     1.098819     0.874041
F    -2.021938     0.103198     1.380149
F    -1.659528     1.219086    -0.407141
F    -1.615270     2.209607     1.501285
S     1.150931    -2.253586    -1.698037
O     2.257085    -1.873161    -2.514627
O     0.019667     0.890540     1.010239
O     0.781522    -1.391363    -0.612117
H     0.293151     0.100694     0.519065
9
IRC Reverse Point 13
C    -1.287936     1.091896     0.877257
F    -2.027090     0.083587     1.350762
F    -1.669976     1.263941    -0.396255
F    -1.604332     2.179955     1.549883
S     1.166878    -2.261425    -1.640527
O     2.241498    -1.911427    -2.510219
O     0.017186     0.870970     0.992230
O     0.796144    -1.328368    -0.614552
H     0.285760     0.114703     0.444276
9
IRC Reverse Point 12
C    -1.280337     1.106207     0.874369
F    -1.983039     0.145593     1.479622
F    -1.748871     1.169965    -0.381484
F    -1.554379     2.253270     1.461720
S     1.110282    -2.160214    -1.835856
O     2.394210    -1.846542    -2.371156
O     0.031787     0.890107     0.928050
O     0.686830    -1.485424    -0.641776
H     0.261651     0.030874     0.539367
9
IRC Reverse Point 11
C    -1.283834     1.121809     0.868325
F    -1.950942     0.143233     1.482965
F    -1.817729     1.212141    -0.360499
F    -1.532683     2.257440     1.486858
S     1.130018    -2.165400    -1.865707
O     2.433422    -1.823003    -2.332355
O     0.032163     0.911506     0.859036
O     0.659207    -1.567851    -0.648825
H     0.248511     0.013960     0.563059
9
IRC Reverse Point 10
C    -1.273932     1.110889     0.921110
F    -1.830888     0.320859     1.842286
F    -2.101717     1.111960    -0.126493
F    -1.218687     2.335556     1.405791
S     1.319189    -1.750016    -2.073221
O     2.690739    -2.017623    -1.785603
O    -0.043758     0.723811     0.590891
O     0.424310    -1.550283    -0.968189
H    -0.047124    -0.181319     0.246285
9
IRC Reverse Point 9
C    -1.264838     1.090688     0.915855
F    -1.766882     0.276658     1.849109
F    -2.122033     1.079252    -0.103478
F    -1.220542     2.309821     1.416639
S     1.329441    -1.680857    -2.041533
O     2.650965    -2.098864    -1.701874
O    -0.039335     0.740400     0.535208
O     0.396379    -1.465473    -0.971333
H    -0.045021    -0.147791     0.154264
9
IRC Reverse Point 8
C    -1.188306     1.072862     0.938346
F    -1.344981     0.305751     2.017124
F    -2.404150     1.282783     0.436746
F    -0.685114     2.228144     1.319233
S     1.678435    -1.404987    -1.868954
O     2.639462    -1.885082    -0.927728
O    -0.363393     0.525224     0.039428
O     0.294364    -1.699361    -1.630152
H    -0.708185    -0.321499    -0.271187
9
IRC Reverse Point 7
C    -1.120023     1.025340     0.903220
F    -1.106896     0.209454     1.955963
F    -2.398786     1.300589     0.648281
F    -0.508444     2.142407     1.233172
S     1.680200    -1.291911    -1.706366
O     2.486310    -1.729938    -0.611439
O    -0.496235     0.496573    -0.157593
O     0.316858    -1.735834    -1.763141
H    -0.934853    -0.312846    -0.449241
9
IRC Reverse Point 6
C    -1.108634     1.016315     0.895161
F    -1.075285     0.185275     1.935460
F    -2.391435     1.305676     0.678001
F    -0.479778     2.123695     1.224988
S     1.670845    -1.275309    -1.679421
O     2.468118    -1.697402    -0.572026
O    -0.516232     0.497602    -0.188520
O     0.317937    -1.747273    -1.758791
H    -0.967405    -0.304744    -0.481996
9
IRC Reverse Point 5
C    -1.096567     1.009286     0.884588
F    -1.020349     0.188199     1.929518
F    -2.387741     1.297162     0.719154
F    -0.456607     2.120729     1.176055
S     1.679826    -1.241086    -1.645577
O     2.394538    -1.697590    -0.495946
O    -0.547255     0.478873    -0.217937
O     0.335322    -1.704205    -1.836162
H    -0.983035    -0.347535    -0.460836
9
IRC Reverse Point 4
C    -1.074743     0.996858     0.856777
F    -0.840161     0.206907     1.904124
F    -2.393746     1.185041     0.811381
F    -0.498088     2.159365     1.071319
S     1.679612    -1.172326    -1.527647
O     2.242369    -1.820353    -0.385206
O    -0.590235     0.483071    -0.282422
O     0.356295    -1.544935    -1.935814
H    -0.963172    -0.389792    -0.459656
9
IRC Reverse Point 3
C    -1.098842     1.024994     0.859825
F    -0.725070     0.384929     1.968381
F    -2.430226     0.994262     0.832634
F    -0.713027     2.279513     0.950848
S     1.739645    -1.221919    -1.498629
O     2.061739    -2.124330    -0.437398
O    -0.556087     0.491561    -0.242189
O     0.422340    -1.282509    -2.059773
H    -0.782341    -0.442668    -0.320844
9
IRC Reverse Point 2
C    -1.134791     1.051518     0.867061
F    -0.707685     0.579640     2.038860
F    -2.432341     0.784553     0.787043
F    -0.962172     2.357401     0.856675
S     1.768058    -1.339676    -1.544762
O     1.879544    -2.374675    -0.563085
O    -0.461856     0.535581    -0.169494
O     0.463729    -1.061567    -2.070344
H    -0.494354    -0.428939    -0.149099
9
IRC Reverse Point 1
C    -1.025020     0.949821     0.795782
F    -0.647587     0.119336     1.770067
F    -2.339855     1.110855     0.911675
F    -0.436190     2.111904     0.993338
S     1.585447    -1.055402    -1.364788
O     2.182380    -1.704509    -0.241752
O    -0.682663     0.503870    -0.414130
O     0.320951    -1.547385    -1.830256
H    -1.039330    -0.384656    -0.567080
9
IRC Reverse Point 0
C    -0.869751     0.799118     0.725756
F    -0.679449    -0.168063     1.613468
F    -2.118780     1.220793     0.832914
F    -0.030341     1.775428     0.979612
S     1.270040    -0.785827    -1.224285
O     1.989124    -1.054528    -0.017751
O    -0.654093     0.392001    -0.531806
O     0.213680    -1.700894    -1.569201
H    -1.202298    -0.374194    -0.755851
9
IRC Forward Point 0
C    -0.762856     0.750137     0.668480
F    -0.639666    -0.175154     1.615908
F    -2.026638     1.166651     0.697314
F     0.002690     1.781966     1.002524
S     1.092171    -0.588589    -1.099117
O     1.923392    -1.078522    -0.047725
O    -0.463084     0.269362    -0.547863
O     0.141923    -1.774096    -1.562058
H    -0.780112    -1.557312    -1.360538
9
IRC Forward Point 1
C    -0.707360     0.734479     0.669102
F    -0.496079    -0.164700     1.616726
F    -1.954258     1.160018     0.780851
F     0.101916     1.761659     0.888371
S     0.993704    -0.507684    -1.017680
O     1.620270    -0.981907     0.176171
O    -0.535563     0.216936    -0.568220
O     0.197649    -1.701013    -1.719086
H    -0.732460    -1.723343    -1.459310
9
IRC Forward Point 2
C    -0.718761     0.753153     0.743605
F    -0.629068    -0.019970     1.806867
F    -1.904686     1.328115     0.754570
F     0.213512     1.692120     0.832564
S     0.899199    -0.432036    -1.013897
O     1.538695    -1.037956     0.115826
O    -0.615920     0.056881    -0.419789
O     0.168679    -1.488071    -1.955341
H    -0.463831    -2.057793    -1.497480
9
IRC Forward Point 3
C    -0.746510     0.791980     0.779233
F    -0.380754     0.429998     1.988365
F    -2.028086     1.100463     0.798644
F    -0.054092     1.886253     0.456318
S     0.980318    -0.588984    -0.762964
O     1.497145    -1.629987     0.075845
O    -0.580609    -0.183275    -0.144086
O     0.252641    -1.191673    -2.029105
H    -0.452234    -1.820332    -1.795324
9
IRC Forward Point 4
C    -0.808943     0.815157     0.773208
F    -0.495629     0.033284     1.815205
F    -1.922522     1.489476     1.027548
F     0.187417     1.721153     0.681391
S     0.676059    -0.400050    -0.929930
O     1.480650    -1.271928    -0.100827
O    -0.919348     0.068494    -0.302412
O     0.381297    -1.452660    -2.020303
H    -0.091161    -2.208483    -1.576955
9
IRC Forward Point 5
C    -0.789630     0.766732     0.734223
F    -0.668244    -0.224894     1.630589
F    -1.812371     1.544163     1.063609
F     0.325833     1.508932     0.844219
S     0.610206    -0.297132    -1.107189
O     1.514520    -0.885238    -0.142844
O    -0.937730     0.234046    -0.462491
O     0.316832    -1.593454    -1.908575
H    -0.071595    -2.258712    -1.284617
9
IRC Forward Point 6
C    -0.731140     0.736768     0.765353
F    -0.541065    -0.056706     1.804796
F    -1.923397     1.290106     0.878373
F     0.187534     1.696039     0.808986
S     0.819742    -0.364815    -1.078748
O     1.581013    -0.928025    -0.000835
O    -0.692129     0.057834    -0.404781
O     0.164952    -1.509202    -1.960397
H    -0.377691    -2.127556    -1.445823
9
IRC Forward Point 7
C    -0.735267     0.793810     0.796232
F    -0.407867     0.128169     1.890718
F    -1.970157     1.236617     0.929836
F     0.078231     1.842522     0.701616
S     0.820664    -0.433403    -0.984265
O     1.477073    -1.210476     0.028916
O    -0.685371     0.015571    -0.308446
O     0.137935    -1.385712    -2.044107
H    -0.227421    -2.192655    -1.643574
9
IRC Forward Point 8
C    -0.743029     0.768386     0.803851
F    -0.446158     0.194598     1.955583
F    -1.965117     1.248996     0.879647
F     0.104984     1.781581     0.631479
S     0.818796    -0.405890    -0.959452
O     1.516893    -1.226691    -0.013494
O    -0.697147    -0.099668    -0.232446
O     0.150397    -1.340973    -2.051042
H    -0.251797    -2.125895    -1.647200
9
IRC Forward Point 9
C    -0.741170     0.773023     0.794774
F    -0.459357     0.117847     1.907470
F    -1.957174     1.269114     0.900774
F     0.121354     1.782621     0.693291
S     0.813915    -0.401338    -0.996503
O     1.515416    -1.166125    -0.005574
O    -0.701409    -0.029953    -0.292234
O     0.140756    -1.388183    -2.037309
H    -0.244512    -2.162563    -1.597764
9
IRC Forward Point 10
C    -0.741279     0.772009     0.795862
F    -0.471677     0.106895     1.905320
F    -1.948838     1.288092     0.902727
F     0.138566     1.767683     0.699438
S     0.799358    -0.393626    -1.002720
O     1.509261    -1.147772    -0.008867
O    -0.712784    -0.026603    -0.294774
O     0.129538    -1.389381    -2.035339
H    -0.214326    -2.182854    -1.594721
9
IRC Forward Point 11
C    -0.741259     0.772429     0.795442
F    -0.467279     0.110371     1.905532
F    -1.952403     1.280203     0.901449
F     0.131128     1.774632     0.698564
S     0.805981    -0.396462    -1.001150
O     1.511609    -1.156574    -0.009146
O    -0.707152    -0.026497    -0.294811
O     0.132512    -1.388702    -2.035570
H    -0.225318    -2.174956    -1.593383
9
IRC Forward Point 12
C    -0.741259     0.772429     0.795442
F    -0.467279     0.110371     1.905532
F    -1.952403     1.280203     0.901449
F     0.131128     1.774632     0.698564
S     0.805981    -0.396462    -1.001150
O     1.511609    -1.156574    -0.009146
O    -0.707152    -0.026497    -0.294811
O     0.132512    -1.388702    -2.035570
H    -0.225318    -2.174956    -1.593383
9
IRC Forward Point 13
C    -0.741259     0.772429     0.795442
F    -0.467279     0.110371     1.905532
F    -1.952403     1.280203     0.901449
F     0.131128     1.774632     0.698564
S     0.805981    -0.396462    -1.001150
O     1.511609    -1.156574    -0.009146
O    -0.707152    -0.026497    -0.294811
O     0.132512    -1.388702    -2.035570
H    -0.225318    -2.174956    -1.593383
