8
energy = -886.5479814199999
C 1.44521700 2.33192100 -1.19813300
F 2.40891100 2.09966800 -2.06464100
F 1.45130600 3.61021000 -0.88699300
F 0.28746000 2.04531300 -1.78503800
S 1.29628100 -0.02016300 0.04312600
O 1.61585100 1.62312100 -0.04821300
O 1.97504600 -0.74229100 -1.01705300
H 0.00281000 0.16220700 -0.41195100
8
energy = -886.5479385689999
C 0.52015100 2.37007600 0.50240900
F -0.14137100 2.68917300 -0.59036900
F 0.89140200 3.47461500 1.11321200
F -0.30550800 1.70206600 1.30185700
S 1.58364500 0.03301200 -0.20823500
O 1.64267800 1.65169200 0.22406100
O 0.65067500 -0.18140800 -1.29894200
H 0.88260800 -0.29300000 0.93899500
8
energy = -886.5485299090001
C 2.59944500 2.22081300 0.54495800
F 2.62965400 2.06693700 1.86382700
F 2.58563100 3.50570000 0.27237400
F 3.71151000 1.68656000 0.05964900
S 1.40235200 -0.03649100 -0.00089800
O 1.48845400 1.66268300 0.00499200
O 1.73071100 -0.52810500 -1.32313400
H 0.03464900 0.12916400 0.01662600
