9
energy = -961.7483719380001
C 2.75972600 2.16248800 -0.37470300
F 3.96475900 1.67642100 -0.54827500
F 2.84666800 3.36803300 0.13258100
F 2.15669200 2.23264500 -1.55359300
S 1.43593700 -0.04730900 0.09663800
O 0.97544400 -0.58910900 1.31917500
O 2.02612500 1.40744300 0.50709300
O 2.35618700 -0.69832000 -0.76298300
H 0.37539800 0.37414500 -0.63410300
9
energy = -961.7483796090002
C 0.91310300 2.43571700 -0.87062300
F 1.43303100 2.30621300 -2.06717800
F 1.09196400 3.66438400 -0.45017000
F -0.38744500 2.18959200 -0.94397200
S 1.25295900 0.00676100 0.04765500
O 2.22622300 -0.50131200 0.93914900
O 1.51929700 1.60727100 0.04152800
O 1.08689200 -0.44294200 -1.28656600
H 0.04507600 0.01536100 0.66195800
9
energy = -961.7484305610001
C 1.45274200 2.35343600 1.14439200
F 0.32765700 2.05240800 1.77823400
F 1.41280700 3.61153800 0.77850800
F 2.45839900 2.17157300 1.96545800
S 1.35535500 -0.00000900 0.00002100
O 1.81499800 -0.53738400 1.22870700
O 1.58614600 1.60610100 0.00002100
O 1.82193300 -0.41447100 -1.26911500
H 0.00016700 0.00018400 0.00097800
