%chk=PFMS_1000K_step0010.chk
%mem=8GB
%nprocshared=4
# B3LYP/6-31G(d) pop=full density=current

PFMS Time step 10

0 1
C      -0.920299      0.002428     -0.240691
F      -1.064376      0.175184     -1.604194
F      -1.560948      1.046986      0.356204
F      -1.655223     -1.131849      0.065647
S       0.852287     -0.155707      0.266223
O       0.993354     -0.170270      1.717167
O       1.559912     -1.082390     -0.545096
O       1.406641      1.337563     -0.166719
H       1.765597      1.860613      0.752792

