%chk=PFMS_1000K_step0030.chk
%mem=8GB
%nprocshared=4
# B3LYP/6-31G(d) pop=full density=current

PFMS Time step 30

0 1
C      -0.914530      0.021578     -0.223989
F      -1.058628      0.164253     -1.618829
F      -1.580739      1.050099      0.354862
F      -1.673683     -1.144939      0.061512
S       0.854643     -0.173505      0.268950
O       1.016620     -0.177749      1.726777
O       1.535711     -1.052546     -0.538665
O       1.435012      1.355510     -0.181854
H       1.799442      1.951568      0.832207

