%chk=PFMS_1000K_step0025.chk
%mem=8GB
%nprocshared=4
# B3LYP/6-31G(d) pop=full density=current

PFMS Time step 25

0 1
C      -0.914755      0.016959     -0.227629
F      -1.060241      0.167012     -1.615605
F      -1.576046      1.049522      0.355266
F      -1.669426     -1.141990      0.062576
S       0.853967     -0.169576      0.267842
O       1.011040     -0.175748      1.724442
O       1.541495     -1.059284     -0.539629
O       1.427760      1.350612     -0.178780
H       1.797076      1.938093      0.825824

