%mem=8GB
%nprocshared=8
# B3LYP/6-31G(d) ADMP int=ultrafine

CF3_Radical ADMP thermal decomposition simulation targeting 600K

0 2
F      -0.458228     -0.225439      0.618953
F      -0.323076      0.517181     -0.386566
F       0.704732     -0.224612      0.043892

