%mem=8GB
%nprocshared=8
# B3LYP/6-31G(d) ADMP int=ultrafine

HBr ADMP thermal decomposition simulation targeting 600K

0 1
Br      0.759488      0.000000      0.000000
H      -0.759488      0.000000      0.000000

