%mem=8GB
%nprocshared=8
# B3LYP/6-31G(d) ADMP int=ultrafine

HF ADMP thermal decomposition simulation targeting 600K

0 1
F       0.487766      0.000000      0.000000
H      -0.487766      0.000000      0.000000

