%mem=8GB
%nprocshared=8
# B3LYP/6-31G(d) ADMP int=ultrafine

PFMS ADMP thermal decomposition simulation targeting 600K

0 1
C      -1.076305     -0.206801     -0.308028
F      -1.214674     -0.017372     -1.650659
F      -1.696829      0.845977      0.300506
F      -1.791510     -1.321884      0.011693
S       0.703851     -0.342832      0.209734
O       0.831706     -0.364997      1.655778
O       1.425678     -1.299256     -0.606614
O       1.243728      1.130932     -0.211628
H       1.574356      1.576231      0.599219

