%mem=8GB
%nprocshared=8
# B3LYP/6-31G(d) ADMP int=ultrafine

SO2 ADMP thermal decomposition simulation targeting 600K

0 1
O      -1.316907     -0.519420      0.000000
S      -0.096304      0.602340      0.000000
O       1.413211     -0.082921      0.000000

