%mem=8GB
%nprocshared=8
# B3LYP/6-31G(d) ADMP int=ultrafine

TS1M_Product1 ADMP thermal decomposition simulation targeting 600K

0 1
F      -1.573306     -1.130107     -0.321991
C      -0.812969     -0.014577     -0.027731
F      -1.613860      1.079279     -0.294491
O      -0.059558     -0.015809      1.182305
S       0.943257      0.018590     -0.102514
O       1.534375      1.330270     -0.201623
O       1.582060     -1.267646     -0.233957

