%chk=PFMS_1000K_step0015.chk
%mem=8GB
%nprocshared=4
# B3LYP/6-31G(d) pop=full density=current

PFMS Time step 15

0 1
C      -0.917710      0.007338     -0.236013
F      -1.063113      0.172472     -1.608251
F      -1.566163      1.047968      0.355937
F      -1.660171     -1.135416      0.064636
S       0.852755     -0.160564      0.266552
O       0.999395     -0.172038      1.719603
O       1.553705     -1.074368     -0.542966
O       1.413593      1.341638     -0.171175
H       1.779943      1.892158      0.785505

