9
IRC Reverse Point 10
C    -0.882451    -0.173394    -0.058075
F    -1.364405     0.331478    -1.169944
F    -1.418285     0.450063     0.974818
F    -1.162655    -1.454731     0.008153
S     0.971215     0.037241    -0.006288
O     1.404599    -0.436590     1.263138
O     1.480410    -0.429592    -1.241441
O     1.049938     1.609537    -0.025842
H     1.088042     1.959242     0.875285
9
IRC Reverse Point 9
C    -0.882451    -0.173394    -0.058075
F    -1.364405     0.331478    -1.169944
F    -1.418285     0.450063     0.974818
F    -1.162655    -1.454731     0.008153
S     0.971215     0.037241    -0.006288
O     1.404599    -0.436590     1.263138
O     1.480410    -0.429592    -1.241441
O     1.049938     1.609537    -0.025842
H     1.088042     1.959242     0.875285
9
IRC Reverse Point 8
C    -0.882451    -0.173394    -0.058075
F    -1.364405     0.331478    -1.169944
F    -1.418285     0.450063     0.974818
F    -1.162655    -1.454731     0.008153
S     0.971215     0.037241    -0.006288
O     1.404599    -0.436590     1.263138
O     1.480410    -0.429592    -1.241441
O     1.049938     1.609537    -0.025842
H     1.088042     1.959242     0.875285
9
IRC Reverse Point 7
C    -0.882789    -0.173635    -0.057966
F    -1.364650     0.332107    -1.169486
F    -1.419454     0.448321     0.975395
F    -1.161975    -1.455221     0.006885
S     0.970755     0.037695    -0.005842
O     1.403685    -0.436100     1.263745
O     1.479970    -0.429674    -1.240770
O     1.050601     1.609918    -0.026559
H     1.090266     1.959843     0.874399
9
IRC Reverse Point 6
C    -0.883477    -0.173785    -0.058978
F    -1.366010     0.327645    -1.171873
F    -1.418492     0.453142     0.972404
F    -1.164051    -1.454867     0.011294
S     0.971827     0.037365    -0.006574
O     1.406077    -0.438052     1.261846
O     1.481500    -0.427442    -1.242519
O     1.048327     1.609609    -0.023367
H     1.090708     1.959641     0.877569
9
IRC Reverse Point 5
C    -0.878818    -0.172954    -0.054411
F    -1.356953     0.373606    -1.149002
F    -1.417346     0.416905     0.997992
F    -1.163049    -1.453822    -0.032659
S     0.972404     0.031712     0.000949
O     1.407933    -0.419359     1.277250
O     1.479662    -0.457541    -1.226684
O     1.047978     1.603086    -0.043922
H     1.074599     1.971622     0.850289
9
IRC Reverse Point 4
C    -0.881329    -0.171992    -0.060771
F    -1.370521     0.299218    -1.183888
F    -1.410233     0.479178     0.957414
F    -1.162954    -1.452117     0.042530
S     0.972283     0.041719    -0.014036
O     1.401084    -0.450035     1.251387
O     1.477814    -0.409246    -1.255866
O     1.071524     1.612924    -0.012850
H     1.068739     1.943606     0.895881
9
IRC Reverse Point 3
C    -0.897267    -0.182022    -0.060577
F    -1.360380     0.306090    -1.189343
F    -1.459864     0.430788     0.958595
F    -1.149183    -1.469337     0.006826
S     0.951496     0.052179    -0.000385
O     1.390564    -0.411493     1.273182
O     1.460495    -0.411851    -1.236862
O     0.997532     1.628005    -0.005621
H     1.233015     1.950897     0.873987
9
IRC Reverse Point 2
C    -0.913393    -0.194593    -0.062667
F    -1.344776     0.234717    -1.227367
F    -1.542469     0.435310     0.904015
F    -1.127202    -1.488619     0.036720
S     0.919245     0.075729     0.023536
O     1.389937    -0.430209     1.265453
O     1.419490    -0.342656    -1.233610
O     0.911278     1.648972     0.087204
H     1.454298     1.954602     0.826517
9
IRC Reverse Point 1
C    -0.964774    -0.207129    -0.070345
F    -1.303336     0.197227    -1.273443
F    -1.688739     0.436896     0.812517
F    -1.174771    -1.501918     0.014189
S     0.920147     0.080997     0.100034
O     1.609879    -0.404738     1.248658
O     1.316390    -0.332661    -1.198511
O     0.843948     1.650595     0.241999
H     1.607665     1.973985     0.744703
9
IRC Reverse Point 0
C    -1.014454    -0.211382    -0.080943
F    -1.287049     0.199763    -1.300046
F    -1.803936     0.426248     0.744934
F    -1.223133    -1.505334    -0.033586
S     0.940901     0.075079     0.168211
O     1.840922    -0.328573     1.209330
O     1.213165    -0.392492    -1.146127
O     0.845736     1.649136     0.315455
H     1.654257     1.980810     0.742574
9
IRC Forward Point 0
C    -1.003387    -0.348436    -0.532904
F    -1.586821     0.068588    -1.626506
F    -1.473900     0.411075     0.465033
F    -1.330622    -1.591582    -0.230246
S     1.033907     0.157250     0.774841
O     2.396351    -0.292325     0.803928
O     0.346469    -0.280186    -0.700480
O     1.037827     1.714432     0.389762
H     1.928796     1.989784     0.142510
9
IRC Forward Point 1
C    -1.048214    -0.347439    -0.553446
F    -1.635389    -0.289981    -1.725184
F    -1.619175     0.542660     0.258337
F    -1.251100    -1.549047    -0.032051
S     1.065800     0.163436     0.774900
O     2.377271    -0.362545     0.520675
O     0.263803    -0.069927    -0.705349
O     1.166533     1.747528     0.658100
H     2.029091     1.993915     0.289956
9
IRC Forward Point 2
C    -1.052283    -0.367607    -0.537428
F    -1.570532    -0.174530    -1.731839
F    -1.589108     0.490105     0.323865
F    -1.389984    -1.592559    -0.159896
S     1.102031     0.200436     0.844128
O     2.402599    -0.319326     0.528734
O     0.283400    -0.192211    -0.591796
O     1.169323     1.775314     0.634641
H     1.993174     2.008979     0.175528
9
IRC Forward Point 3
C    -1.138187    -0.430106    -0.529737
F    -1.479235    -0.480563    -1.812819
F    -1.763345     0.516169     0.134616
F    -1.534707    -1.642148    -0.144053
S     1.205465     0.291646     0.916565
O     2.303622    -0.248603     0.163460
O     0.148581    -0.087530    -0.419544
O     1.417650     1.852714     0.876328
H     2.188776     2.057020     0.301122
9
IRC Forward Point 4
C    -1.084468    -0.366737    -0.546462
F    -1.575460    -0.343703    -1.770578
F    -1.703472     0.535431     0.209211
F    -1.355749    -1.571982    -0.055002
S     1.137616     0.189830     0.830203
O     2.408292    -0.319625     0.394618
O     0.229549    -0.086591    -0.599876
O     1.243870     1.770936     0.755363
H     2.048443     2.021041     0.268462
9
IRC Forward Point 5
C    -1.061632    -0.368591    -0.540394
F    -1.576611    -0.227349    -1.744385
F    -1.622006     0.503609     0.291263
F    -1.376163    -1.589606    -0.127526
S     1.113007     0.197681     0.839379
O     2.405794    -0.318872     0.487509
O     0.268030    -0.159640    -0.596727
O     1.190012     1.776021     0.672009
H     2.008189     2.015349     0.204810
9
IRC Forward Point 6
C    -1.032973    -0.325194    -0.543481
F    -1.535167    -0.244705    -1.756705
F    -1.620984     0.581865     0.232350
F    -1.332424    -1.520705    -0.049086
S     1.148745     0.122793     0.847967
O     2.441615    -0.373587     0.471413
O     0.299671    -0.124600    -0.612624
O     1.210168     1.704635     0.815419
H     1.769968     2.008099     0.080684
9
IRC Forward Point 7
C    -1.048743    -0.306889    -0.548203
F    -1.546427    -0.339319    -1.762317
F    -1.688171     0.633340     0.143767
F    -1.289638    -1.459579     0.067047
S     1.170439     0.062927     0.791002
O     2.488048    -0.362778     0.417480
O     0.282907    -0.081875    -0.652123
O     1.162759     1.658912     0.821684
H     1.817447     2.023860     0.207601
9
IRC Forward Point 8
C    -1.042492    -0.311082    -0.547716
F    -1.537006    -0.339608    -1.765352
F    -1.664810     0.637857     0.145302
F    -1.309622    -1.468076     0.048433
S     1.172466     0.075431     0.812872
O     2.472344    -0.367393     0.399255
O     0.286778    -0.087527    -0.633530
O     1.186455     1.665051     0.850742
H     1.784506     2.023946     0.175932
9
IRC Forward Point 9
C    -1.038143    -0.307673    -0.545767
F    -1.528903    -0.336355    -1.765007
F    -1.644333     0.659039     0.135348
F    -1.330436    -1.454188     0.058138
S     1.186596     0.060809     0.812596
O     2.491010    -0.354156     0.384911
O     0.296488    -0.113644    -0.626999
O     1.166488     1.650365     0.856039
H     1.749852     2.024403     0.176678
9
IRC Forward Point 10
C    -1.035968    -0.299366    -0.547095
F    -1.520381    -0.380157    -1.766363
F    -1.642538     0.697242     0.087264
F    -1.333778    -1.418475     0.104158
S     1.203359     0.036871     0.800766
O     2.506320    -0.346114     0.340014
O     0.299252    -0.110363    -0.631696
O     1.158606     1.622597     0.892553
H     1.713747     2.026367     0.206338
9
IRC Forward Point 11
C    -1.036622    -0.302462    -0.546295
F    -1.521944    -0.365866    -1.766501
F    -1.638958     0.688904     0.100814
F    -1.339489    -1.428359     0.090512
S     1.201375     0.042789     0.804646
O     2.505464    -0.344739     0.350945
O     0.299444    -0.118340    -0.628745
O     1.158729     1.629858     0.882644
H     1.720621     2.026814     0.197918
9
IRC Forward Point 12
C    -1.037034    -0.302881    -0.546432
F    -1.522495    -0.366358    -1.766603
F    -1.639833     0.688217     0.100870
F    -1.339253    -1.428893     0.090518
S     1.200861     0.043386     0.804242
O     2.505049    -0.344655     0.351265
O     0.298878    -0.118004    -0.629380
O     1.159387     1.630534     0.882423
H     1.723060     2.027253     0.199035
9
IRC Forward Point 13
C    -1.036977    -0.302847    -0.546485
F    -1.522535    -0.367168    -1.766574
F    -1.639183     0.689214     0.099930
F    -1.339809    -1.428073     0.091568
S     1.201196     0.042834     0.803766
O     2.505602    -0.343977     0.350348
O     0.299030    -0.118798    -0.629758
O     1.158749     1.629930     0.882968
H     1.722546     2.027486     0.200174
9
IRC Forward Point 14
C    -1.036977    -0.302847    -0.546485
F    -1.522535    -0.367168    -1.766574
F    -1.639183     0.689214     0.099930
F    -1.339809    -1.428073     0.091568
S     1.201196     0.042834     0.803766
O     2.505602    -0.343977     0.350348
O     0.299030    -0.118798    -0.629758
O     1.158749     1.629930     0.882968
H     1.722546     2.027486     0.200174
9
IRC Forward Point 15
C    -1.036977    -0.302847    -0.546485
F    -1.522535    -0.367168    -1.766574
F    -1.639183     0.689214     0.099930
F    -1.339809    -1.428073     0.091568
S     1.201196     0.042834     0.803766
O     2.505602    -0.343977     0.350348
O     0.299030    -0.118798    -0.629758
O     1.158749     1.629930     0.882968
H     1.722546     2.027486     0.200174
