%mem=3GB
%nprocshared=4
# opt=(ts,calcfc,noeigen,qst3) freq m062x/def2tzvp geom=connectivity int=ultrafine scf=(tight,xqc)

TS1M transition state search

--Link1--
%mem=3GB
%nprocshared=4

PFMS optimization

0 1
C      -1.076305     -0.206801     -0.308028
F      -1.214674     -0.017372     -1.650659
F      -1.696829      0.845977      0.300506
F      -1.791510     -1.321884      0.011693
S       0.703851     -0.342832      0.209734
O       0.831706     -0.364997      1.655778
O       1.425678     -1.299256     -0.606614
O       1.243728      1.130932     -0.211628
H       1.574356      1.576231      0.599219

1 2 1.0 3 1.0 4 1.0 5 1.0
2
3
4
5 6 1.0 7 1.0 8 1.0
6
7
8 9 1.0
9

--Link1--
%mem=3GB
%nprocshared=4

TS1M_Product1 optimization

0 1
F      -1.573306     -1.130107     -0.321991
C      -0.812969     -0.014577     -0.027731
F      -1.613860      1.079279     -0.294491
O      -0.059558     -0.015809      1.182305
S       0.943257      0.018590     -0.102514
O       1.534375      1.330270     -0.201623
O       1.582060     -1.267646     -0.233957

1 2 1.0
2 3 1.0 4 1.0 5 1.0
3
4 5 1.0
5 6 1.0 7 1.0
6
7

--Link1--
