9
IRC Reverse Point 8
C     0.612137     0.396280    -1.050324
F     1.844911     0.192622    -1.460733
F     0.545318     1.582128    -0.468157
F    -0.191038     0.413983    -2.101319
S    -1.214570    -0.625842     0.497119
O    -0.507723    -0.460988     2.921708
O     0.299642    -0.615226    -0.189392
O    -1.029995     0.285370     1.789340
H     0.359585    -0.047060     3.024749
9
IRC Reverse Point 7
C     0.612137     0.396280    -1.050324
F     1.844911     0.192622    -1.460733
F     0.545318     1.582128    -0.468157
F    -0.191038     0.413983    -2.101319
S    -1.214570    -0.625842     0.497119
O    -0.507723    -0.460988     2.921708
O     0.299642    -0.615226    -0.189392
O    -1.029995     0.285370     1.789340
H     0.359585    -0.047060     3.024749
9
IRC Reverse Point 6
C     0.612137     0.396280    -1.050324
F     1.844911     0.192622    -1.460733
F     0.545318     1.582128    -0.468157
F    -0.191038     0.413983    -2.101319
S    -1.214570    -0.625842     0.497119
O    -0.507723    -0.460988     2.921708
O     0.299642    -0.615226    -0.189392
O    -1.029995     0.285370     1.789340
H     0.359585    -0.047060     3.024749
9
IRC Reverse Point 5
C     0.612157     0.396200    -1.050081
F     1.844886     0.192360    -1.460605
F     0.545769     1.581966    -0.467568
F    -0.191002     0.414543    -2.101031
S    -1.214913    -0.626356     0.497118
O    -0.507066    -0.461083     2.921247
O     0.299319    -0.615349    -0.189377
O    -1.030551     0.284989     1.789199
H     0.359668    -0.046004     3.024090
9
IRC Reverse Point 4
C     0.612002     0.396223    -1.048942
F     1.844914     0.192047    -1.460091
F     0.546905     1.580770    -0.465262
F    -0.190950     0.415884    -2.100078
S    -1.218072    -0.627662     0.495421
O    -0.503273    -0.462967     2.917437
O     0.296783    -0.616486    -0.190467
O    -1.028982     0.283770     1.786981
H     0.358942    -0.040311     3.027993
9
IRC Reverse Point 3
C     0.605833     0.391853    -1.045490
F     1.854435     0.204365    -1.410388
F     0.501276     1.579792    -0.469153
F    -0.159474     0.397762    -2.124673
S    -1.229427    -0.603364     0.504378
O    -0.498267    -0.451682     2.921693
O     0.281270    -0.623020    -0.195423
O    -1.027022     0.301943     1.797053
H     0.389643    -0.076382     2.984994
9
IRC Reverse Point 2
C     0.622506     0.421761    -1.169497
F     1.839160     0.172442    -1.599695
F     0.568971     1.664671    -0.722910
F    -0.216336     0.318459    -2.186983
S    -1.139292    -0.482769     0.527577
O    -0.522185    -0.651316     2.974315
O     0.356719    -0.494960    -0.188335
O    -0.928220     0.266432     1.910410
H     0.136946    -0.093453     3.418108
9
IRC Reverse Point 1
C     0.620749     0.397859    -1.039972
F     1.800405     0.162525    -1.568758
F     0.669264     1.552518    -0.388321
F    -0.267280     0.520044    -2.010843
S    -1.163094    -0.744075     0.492200
O    -0.499450    -0.438090     2.912783
O     0.342460    -0.639440    -0.199487
O    -1.087885     0.219432     1.752173
H     0.303099     0.090494     3.013215
9
IRC Reverse Point 0
C     0.633072     0.379297    -0.995833
F     1.617048     0.137964    -1.835156
F     1.012301     1.341893    -0.168247
F    -0.412269     0.817719    -1.675129
S    -1.073182    -0.997655     0.446126
O    -0.276331    -0.360343     2.742741
O     0.381673    -0.773106    -0.314892
O    -1.063003     0.090335     1.594950
H    -0.101041     0.485163     3.168431
9
IRC Forward Point 0
C     0.631320     0.393646    -0.980359
F     1.607922     0.125503    -1.818894
F     1.016502     1.332171    -0.152272
F    -0.410957     0.822530    -1.665413
S    -0.895515    -0.930376     0.790004
O    -0.151388    -0.619546     2.593296
O     0.323347    -0.782234    -0.320911
O    -1.515134     0.329060     1.012655
H     0.504868    -1.192931     3.013963
9
IRC Forward Point 1
C     0.629456     0.374207    -0.919336
F     1.626637     0.088014    -1.728446
F     0.993088     1.340681    -0.110893
F    -0.397731     0.779888    -1.640091
S    -0.922883    -0.897985     0.857385
O    -0.104748    -0.580836     2.476502
O     0.318186    -0.780782    -0.233754
O    -1.596954     0.351944     0.969562
H     0.565914    -1.197308     2.801140
9
IRC Forward Point 2
C     0.629984     0.344772    -0.821301
F     1.654693     0.028776    -1.586057
F     0.960296     1.366023    -0.061953
F    -0.379344     0.696552    -1.593293
S    -0.941364    -0.830526     0.988511
O    -0.036305    -0.516623     2.276048
O     0.325512    -0.767766    -0.079548
O    -1.717900     0.368678     0.916234
H     0.615393    -1.212064     2.433426
9
IRC Forward Point 3
C     0.620469     0.346958    -0.854472
F     1.641056     0.051225    -1.637091
F     0.974085     1.340678    -0.057971
F    -0.381580     0.751741    -1.608608
S    -0.885443    -0.824303     1.035651
O    -0.042936    -0.514348     2.362109
O     0.309602    -0.777615    -0.154818
O    -1.704955     0.334933     0.853528
H     0.580667    -1.231445     2.533741
9
IRC Forward Point 4
C     0.617918     0.326838    -0.819737
F     1.660857     0.023583    -1.569486
F     0.971298     1.272733     0.033319
F    -0.333334     0.801132    -1.598715
S    -0.943793    -0.841412     1.022309
O     0.035769    -0.440858     2.265322
O     0.232792    -0.812253    -0.181815
O    -1.793941     0.298116     0.863023
H     0.663399    -1.150055     2.457850
9
IRC Forward Point 5
C     0.614626     0.315273    -0.810751
F     1.673899     0.011632    -1.538960
F     0.967842     1.215726     0.090617
F    -0.294215     0.851334    -1.600565
S    -0.936264    -0.858549     1.041801
O     0.055070    -0.388797     2.203535
O     0.167392    -0.836886    -0.237555
O    -1.821754     0.254928     0.891533
H     0.684368    -1.086838     2.432413
9
IRC Forward Point 6
C     0.615714     0.328155    -0.825906
F     1.675032     0.030117    -1.554975
F     0.947381     1.280114     0.028099
F    -0.323270     0.797965    -1.625510
S    -0.928554    -0.842946     1.035877
O     0.048639    -0.435915     2.244637
O     0.214697    -0.813815    -0.201497
O    -1.777201     0.299703     0.893368
H     0.638527    -1.165554     2.477975
9
IRC Forward Point 7
C     0.616180     0.326947    -0.821706
F     1.663608     0.027604    -1.566573
F     0.966122     1.263149     0.041602
F    -0.328055     0.813788    -1.603373
S    -0.924909    -0.848795     1.029713
O     0.049261    -0.421846     2.239366
O     0.213044    -0.820359    -0.205090
O    -1.783385     0.285272     0.875967
H     0.639098    -1.147937     2.482163
9
IRC Forward Point 8
C     0.616057     0.326517    -0.821810
F     1.662163     0.028493    -1.569157
F     0.967694     1.261683     0.042417
F    -0.329445     0.814712    -1.601040
S    -0.923400    -0.848359     1.029968
O     0.049983    -0.420624     2.237419
O     0.215165    -0.820857    -0.205249
O    -1.783464     0.284290     0.874325
H     0.636212    -1.148032     2.485195
9
IRC Forward Point 9
C     0.615891     0.326528    -0.822185
F     1.662736     0.028421    -1.568422
F     0.966866     1.261121     0.042958
F    -0.328498     0.815442    -1.602272
S    -0.923059    -0.848594     1.030202
O     0.050870    -0.419979     2.237015
O     0.213757    -0.821066    -0.206667
O    -1.783652     0.283792     0.875502
H     0.636054    -1.147842     2.485940
9
IRC Forward Point 10
C     0.615891     0.326528    -0.822185
F     1.662736     0.028421    -1.568422
F     0.966866     1.261121     0.042958
F    -0.328498     0.815442    -1.602272
S    -0.923059    -0.848594     1.030202
O     0.050870    -0.419979     2.237015
O     0.213757    -0.821066    -0.206667
O    -1.783652     0.283792     0.875502
H     0.636054    -1.147842     2.485940
9
IRC Forward Point 11
C     0.615891     0.326528    -0.822185
F     1.662736     0.028421    -1.568422
F     0.966866     1.261121     0.042958
F    -0.328498     0.815442    -1.602272
S    -0.923059    -0.848594     1.030202
O     0.050870    -0.419979     2.237015
O     0.213757    -0.821066    -0.206667
O    -1.783652     0.283792     0.875502
H     0.636054    -1.147842     2.485940
