%mem=3GB
%nprocshared=4
# opt=(maxcyc=999,noeigen) freq m062x/def2tzvp geom=connectivity int=ultrafine scf=(tight,xqc)

HCl optimization

0 1
Cl      0.682834      0.000000      0.000000
H      -0.682834      0.000000      0.000000

1 2 1.0
2

