%mem=3GB
%nprocshared=4
# opt=(maxcyc=999,noeigen) freq m062x/def2tzvp geom=connectivity int=ultrafine scf=(tight,xqc)

ISOPFMS optimization

0 1
C      -1.593284     -0.345470      0.178720
F      -2.960508     -0.393190      0.149560
F      -1.246140      0.616114      1.083092
F      -1.175700     -0.029778     -1.115527
O      -1.043620     -1.572770      0.478941
S       0.830836     -0.516509      0.289588
O       1.301694     -0.577575     -1.199750
O       1.785716     -0.170193      1.370073
O       0.594053      1.863161      0.690133
H       2.142143     -0.537138      0.186475
H       0.987179      0.085346     -1.881583
H       0.377632      1.578002     -0.229722

1 2 1.0 3 1.0 4 1.0 5 1.0
2
3
4
5 6 1.0
6 7 1.0 8 1.0 9 1.0 10 1.0
7 11 1.0
8
9 12 1.0
10
11
12

