%mem=3GB
%nprocshared=4
# opt=(maxcyc=999,noeigen) freq m062x/def2tzvp geom=connectivity int=ultrafine scf=(tight,xqc)

TS1M_Product1 optimization

0 1
F      -1.573306     -1.130107     -0.321991
C      -0.812969     -0.014577     -0.027731
F      -1.613860      1.079279     -0.294491
O      -0.059558     -0.015809      1.182305
S       0.943257      0.018590     -0.102514
O       1.534375      1.330270     -0.201623
O       1.582060     -1.267646     -0.233957

1 2 1.0
2 3 1.0 4 1.0 5 1.0
3
4 5 1.0
5 6 1.0 7 1.0
6
7

