9
energy = -961.6433784660002
C -0.08703300 0.69794400 1.75605100
F -1.34493900 0.53860600 2.14506200
F 0.23878700 1.95943500 1.87594400
F 0.69014700 -0.04912000 2.50925400
S -0.02624900 0.12889100 -0.06689800
O 1.56779500 -0.21698000 -0.11079500
O 2.36823900 0.90112500 0.25986900
O -0.27878900 1.34678800 -0.81575500
H 2.34186900 1.45143900 -0.53745500
9
energy = -961.6433990950001
C -0.17546300 0.65635300 1.83797800
F -1.37716400 0.35536700 2.31175500
F 0.02354400 1.94282200 1.96915200
F 0.72996800 -0.01799400 2.51235800
S -0.19094100 0.13328900 0.00024900
O 1.42269000 -0.04278600 -0.16649900
O 2.12837100 1.14547300 0.17743100
O -0.62215400 1.33273200 -0.69528700
H 1.98850900 1.70494800 -0.60166600
9
energy = -961.6399412080001
C -0.18439400 0.74694900 1.75313800
F -1.35789800 0.34861200 2.21809700
F -0.11058500 2.05022400 1.83101000
F 0.76866600 0.20142900 2.49554500
S -0.07842000 0.14662800 -0.06047900
O 1.54430800 -0.00318500 -0.10640800
O 2.22620700 1.20594200 0.23575900
O -0.54194900 1.28579100 -0.81965800
H 2.70707100 0.92134900 1.02537800
9
energy = -961.6378316880001
C -0.19877000 1.21830800 -1.55592200
F -1.46831200 1.57822900 -1.53664900
F 0.07539200 0.63242700 -2.69447600
F 0.55572400 2.30736700 -1.43101800
S 0.13069500 0.04870300 -0.09222900
O 1.77808800 0.02862300 -0.36391500
O 2.36623900 1.02164700 0.46609700
O -0.33641000 -1.23448500 -0.56835500
H 2.56718100 1.71986100 -0.17222100
9
energy = -961.6376731240001
C -0.37734300 1.19732500 -1.55480400
F -1.67792400 1.41933500 -1.58966100
F 0.00961700 0.67090100 -2.68967800
F 0.24916000 2.35695800 -1.37345000
S 0.00714100 0.03380800 -0.09972600
O 1.65814300 0.19959600 -0.28584400
O 2.09310300 1.22009800 0.60333700
O -0.29373700 -1.27956600 -0.62498200
H 2.25920000 1.95429800 -0.00368600
9
energy = -961.6415288010002
C -0.28387300 1.23376300 -1.77011900
F -1.54010100 0.93814600 -2.05036700
F 0.50398400 0.62399400 -2.62357100
F -0.11733600 2.53818700 -1.85608500
S 0.01764000 0.64512400 0.01365100
O 1.60176700 1.08016000 -0.19976700
O 2.20918400 1.02293900 1.08613000
O -0.10196600 -0.79728500 -0.03202500
H 2.68370600 0.18126200 1.04056900
9
energy = -961.6395113880001
C -0.05181200 -1.80883800 -0.35533200
F -1.32148600 -2.16908100 -0.38232700
F 0.58242600 -2.52556800 0.54086200
F 0.47808300 -2.01095100 -1.54844500
S -0.02055600 0.04616600 0.06107100
O 1.63239600 -0.07834700 0.11280900
O 2.14948000 1.24757900 0.04197000
O -0.56283400 0.14126900 1.39660000
H 2.58412900 1.23800100 -0.82109700
9
energy = -961.6395012480001
C -0.09804000 -1.81639400 -0.34516500
F -1.30559500 -2.34286200 -0.26097200
F 0.72684500 -2.50261700 0.40833800
F 0.30286500 -1.85866800 -1.60321600
S -0.25109600 -0.00898900 0.22500200
O 1.39854600 0.08719700 0.08492900
O 1.73272600 1.47242800 0.07753200
O -0.63768500 -0.08395100 1.61489900
H 2.05879300 1.58616000 -0.82504300
9
energy = -961.641548284
C -0.07154900 -1.83425500 -0.35068200
F -1.33438600 -2.21836300 -0.30904700
F 0.61389100 -2.50641700 0.54334400
F 0.41099300 -2.06506600 -1.55508300
S -0.06914000 0.03269400 0.01471800
O 1.58525600 -0.04937300 -0.01166600
O 2.05296300 1.29485800 -0.01689400
O -0.52978600 0.15770700 1.38189100
H 2.31476400 1.41405600 0.90663600
