9
energy = -961.7509581570001
C -0.07074900 -0.06251100 -0.06237500
F -0.54043500 0.42739800 -1.18612300
F -0.56988400 0.61594000 0.95413700
F -0.40519600 -1.32779100 0.04684100
S 1.79075200 0.06868400 -0.03173700
O 2.21488400 -0.38107600 1.24954400
O 2.26747900 -0.46133200 -1.25434400
O 1.93780200 1.63445000 -0.10521100
H 1.99896000 2.01223500 0.78325400
9
energy = -961.7509055410001
C 0.06133100 0.04461100 0.00018600
F -0.40360400 0.63090500 -1.07849200
F -0.28970800 0.74254400 1.06434300
F -0.42543600 -1.17160200 0.09170800
S 1.92313400 -0.05984100 -0.07706900
O 2.35805900 -0.60091000 1.16459600
O 2.25975700 -0.60468900 -1.33920900
O 2.26316700 1.47675000 -0.11953900
H 2.42266200 1.81470800 0.77272400
9
energy = -961.7509381550001
C 0.00000000 0.00000000 0.00000000
F -0.43361600 0.65733900 -1.05948300
F -0.45198500 0.57951100 1.08783300
F -0.42107800 -1.24295500 -0.05106500
S 1.86644200 0.00000000 0.00000000
O 2.28441700 -0.49987000 1.25634400
O 2.27909000 -0.54136800 -1.24919300
O 2.12125800 1.55365700 0.00000000
H 2.22482500 1.88097100 -0.90436400
