9
energy = -961.589048507
C 0.03861000 -0.03184000 -0.12908600
F -0.37218000 0.08574400 -1.38254800
F -0.44995600 0.99908000 0.56612400
F -0.45238900 -1.14734600 0.37746000
S 1.96776700 -0.08038600 -0.10073400
O 2.02500300 -0.43943600 1.40986200
O 3.41938700 -0.09787500 0.97174200
O 2.04022100 1.48293000 -0.35558600
H 1.43328100 1.98536500 0.20843400
9
energy = -961.588932967
C 0.01658400 -0.01698000 -0.01347800
F -0.42063900 0.35130400 -1.20818300
F -0.51458700 0.80467500 0.89497400
F -0.40432900 -1.24345700 0.23455900
S 1.94465400 0.03535800 -0.00839500
O 2.05021400 -0.62175500 1.39556000
O 3.41703000 -0.12519300 1.02477700
O 1.93276200 1.61920900 0.06483100
H 1.33645200 1.96131100 0.74756400
9
energy = -961.5943869310001
C 0.01200200 0.00985200 -0.00202700
F -0.40601900 0.45431800 -1.17763400
F -0.51015900 0.74880400 0.95193000
F -0.39964400 -1.24210400 0.14694200
S 1.92438200 -0.03273400 0.00226600
O 2.06876100 -0.54688900 1.45836300
O 3.43870300 -0.09252000 1.05405400
O 1.91488100 1.55964400 -0.00103900
H 2.81715700 1.86368000 0.16871900
