9
energy = -961.557330394
C 0.04251100 0.01514500 -0.00915300
F -0.23543500 0.60085800 -1.18988500
F -0.56131200 0.73096300 0.92236700
F -0.46197400 -1.20127700 -0.02860200
S 2.09080000 -0.09455200 -0.00067200
O 1.88848400 -0.38591000 1.48023700
O 3.49482500 -0.31724700 0.67147800
O 2.22897600 1.48913900 -0.18960100
H 1.48424200 1.85237400 -0.68811100
9
energy = -961.5599214410001
C -0.10473500 -0.09287400 -0.05005700
F -0.42918000 0.44878900 -1.21678600
F -0.79743200 0.50914200 0.89423700
F -0.42459700 -1.37578000 -0.08697000
S 1.89939600 0.06539500 0.06564300
O 1.75209000 -0.50966600 1.47110900
O 3.33987200 -0.04342800 0.74662900
O 1.70978900 1.65186600 0.13399900
H 2.50728100 2.05545100 0.49967900
9
energy = -961.5599113690001
C 0.01572900 0.01462100 -0.00144700
F -0.31540700 0.53367300 -1.17651100
F -0.55341400 0.73239300 0.94468200
F -0.44108100 -1.22586100 0.04584200
S 2.02914300 -0.04362200 0.00307000
O 1.89702200 -0.52661100 1.44445400
O 3.48354100 -0.27619800 0.61878200
O 2.01505400 1.55545700 -0.00942400
H 2.87018900 1.88712400 0.29278700
