9
energy = -961.5573304000001
C 0.04254100 0.01514500 -0.00917000
F -0.23539700 0.60085000 -1.18990800
F -0.56127700 0.73097600 0.92234300
F -0.46195300 -1.20127300 -0.02860900
S 2.09083100 -0.09456700 -0.00067900
O 1.88850200 -0.38591100 1.48023100
O 3.49484900 -0.31726700 0.67148500
O 2.22902100 1.48912100 -0.18962100
H 1.48428800 1.85235900 -0.68813200
9
energy = -961.5599214670002
C -0.10473500 -0.09296500 -0.05001600
F -0.42927700 0.44864300 -1.21674300
F -0.79742300 0.50903400 0.89429700
F -0.42451500 -1.37589200 -0.08687400
S 1.89939500 0.06543700 0.06558500
O 1.75217400 -0.50958300 1.47107800
O 3.33989900 -0.04327200 0.74652600
O 1.70968900 1.65189800 0.13388800
H 2.50717200 2.05555200 0.49951400
9
energy = -961.5599113700001
C 0.01573400 0.01460800 -0.00144700
F -0.31539700 0.53369600 -1.17649700
F -0.55342600 0.73234100 0.94470100
F -0.44106100 -1.22588100 0.04579600
S 2.02914900 -0.04361100 0.00308400
O 1.89702100 -0.52664900 1.44445200
O 3.48354400 -0.27619000 0.61880100
O 2.01504100 1.55546800 -0.00935800
H 2.87017000 1.88713600 0.29287100
