%chk=PFMS_1200K_step0160.chk
%mem=8GB
%nprocshared=4
# B3LYP/6-31G(d) pop=full density=current

PFMS Time step 160

0 1
C      -1.112244      0.002714     -0.282397
F      -0.987438      0.103539     -1.581903
F      -1.657953      1.039760      0.331121
F      -1.699967     -1.125020      0.033643
S       0.873786     -0.116359      0.369350
O       1.110785     -0.247862      1.785055
O       1.473041     -1.082127     -0.687544
O       1.566561      1.413951     -0.220344
H       1.567691      1.981953      0.668125

