%chk=PFMS_1200K_step0056.chk
%mem=8GB
%nprocshared=4
# B3LYP/6-31G(d) pop=full density=current

PFMS Time step 56

0 1
C      -0.927134      0.041435     -0.212461
F      -1.048321      0.150003     -1.630116
F      -1.602172      1.051106      0.352047
F      -1.691527     -1.156016      0.055910
S       0.858005     -0.185642      0.280761
O       1.042935     -0.189228      1.737637
O       1.511237     -1.029233     -0.544159
O       1.473717      1.384248     -0.188230
H       1.745463      1.914692      0.707706

