%chk=PFMS_1200K_step0186.chk
%mem=8GB
%nprocshared=4
# B3LYP/6-31G(d) pop=full density=current

PFMS Time step 186

0 1
C      -1.148826     -0.025313     -0.304633
F      -0.972954      0.096179     -1.559262
F      -1.671390      1.036592      0.322811
F      -1.696766     -1.108821      0.029133
S       0.885605     -0.093867      0.370197
O       1.122685     -0.262819      1.807532
O       1.453540     -1.090383     -0.709446
O       1.574730      1.410615     -0.203710
H       1.539233      1.916565      0.447799

