%chk=PFMS_1200K_step0016.chk
%mem=8GB
%nprocshared=4
# B3LYP/6-31G(d) pop=full density=current

PFMS Time step 16

0 1
C      -0.917285      0.008314     -0.235121
F      -1.062845      0.171929     -1.609030
F      -1.567180      1.048144      0.355875
F      -1.661134     -1.136106      0.064434
S       0.852861     -0.161514      0.266641
O       1.000587     -0.172397      1.720090
O       1.552467     -1.072795     -0.542572
O       1.414996      1.342493     -0.172010
H       1.782318      1.897765      0.790981

