%chk=PFMS_1200K_step0140.chk
%mem=8GB
%nprocshared=4
# B3LYP/6-31G(d) pop=full density=current

PFMS Time step 140

0 1
C      -1.075168      0.024630     -0.261114
F      -0.999515      0.110453     -1.599682
F      -1.648199      1.042043      0.336297
F      -1.703211     -1.138173      0.037784
S       0.867297     -0.135586      0.360118
O       1.100793     -0.235877      1.770442
O       1.483114     -1.069600     -0.661834
O       1.556605      1.412386     -0.228356
H       1.593764      2.041299      0.818172

