%chk=PFMS_1200K_step0164.chk
%mem=8GB
%nprocshared=4
# B3LYP/6-31G(d) pop=full density=current

PFMS Time step 164

0 1
C      -1.118896     -0.001906     -0.286389
F      -0.985105      0.102285     -1.578267
F      -1.659950      1.039301      0.329976
F      -1.699314     -1.122318      0.032859
S       0.875358     -0.112643      0.370276
O       1.112699     -0.250240      1.788358
O       1.470513     -1.084051     -0.691816
O       1.568144      1.414332     -0.217440
H       1.562983      1.962634      0.623441

