%chk=PFMS_1200K_step0094.chk
%mem=8GB
%nprocshared=4
# B3LYP/6-31G(d) pop=full density=current

PFMS Time step 94

0 1
C      -0.981991      0.051774     -0.220066
F      -1.028089      0.130323     -1.628341
F      -1.625732      1.047927      0.345975
F      -1.704418     -1.157859      0.047627
S       0.860519     -0.175199      0.316534
O       1.073411     -0.209075      1.749845
O       1.495139     -1.034532     -0.587889
O       1.521825      1.413500     -0.199404
H       1.632903      1.860808      0.578166

