%chk=PFMS_1200K_step0096.chk
%mem=8GB
%nprocshared=4
# B3LYP/6-31G(d) pop=full density=current

PFMS Time step 96

0 1
C      -0.985772      0.051499     -0.221267
F      -1.026895      0.129354     -1.627637
F      -1.626780      1.047683      0.345605
F      -1.704687     -1.157469      0.047201
S       0.860647     -0.173887      0.318718
O       1.074776     -0.210194      1.750487
O       1.494693     -1.035776     -0.591027
O       1.523705      1.413647     -0.201485
H       1.631764      1.873134      0.597542

