%chk=PFMS_1200K_step0114.chk
%mem=8GB
%nprocshared=4
# B3LYP/6-31G(d) pop=full density=current

PFMS Time step 114

0 1
C      -1.021737      0.045193     -0.234923
F      -1.015820      0.121041     -1.618874
F      -1.635792      1.045324      0.342066
F      -1.705597     -1.151850      0.043351
S       0.862282     -0.159883      0.338045
O       1.086286     -0.220475      1.756887
O       1.490942     -1.049081     -0.620659
O       1.538950      1.412914     -0.219057
H       1.621314      1.985182      0.768696

