%chk=PFMS_1200K_step0032.chk
%mem=8GB
%nprocshared=4
# B3LYP/6-31G(d) pop=full density=current

PFMS Time step 32

0 1
C      -0.914692      0.023347     -0.222647
F      -1.057951      0.163153     -1.620030
F      -1.582562      1.050293      0.354684
F      -1.675313     -1.146045      0.061085
S       0.854922     -0.174953      0.269485
O       1.018805     -0.178568      1.727689
O       1.533470     -1.050018     -0.538429
O       1.437946      1.357542     -0.182912
H       1.799141      1.955002      0.831875

