%chk=PFMS_1200K_step0004.chk
%mem=8GB
%nprocshared=4
# B3LYP/6-31G(d) pop=full density=current

PFMS Time step 4

0 1
C      -0.924210     -0.003304     -0.246505
F      -1.065763      0.178388     -1.599084
F      -1.554515      1.045633      0.356447
F      -1.649053     -1.127405      0.066831
S       0.851888     -0.149711      0.265975
O       0.985944     -0.168196      1.714294
O       1.567336     -1.092266     -0.547921
O       1.398415      1.332998     -0.160816
H       1.743682      1.816227      0.703424

