%chk=PFMS_1200K_step0178.chk
%mem=8GB
%nprocshared=4
# B3LYP/6-31G(d) pop=full density=current

PFMS Time step 178

0 1
C      -1.139348     -0.017395     -0.298868
F      -0.977230      0.098239     -1.565862
F      -1.667145      1.037634      0.325602
F      -1.697438     -1.113365      0.030344
S       0.881586     -0.100315      0.371182
O       1.119152     -0.258352      1.800478
O       1.460311     -1.088932     -0.704216
O       1.572688      1.413920     -0.207066
H       1.548158      1.907633      0.479066

