%chk=PFMS_1200K_step0080.chk
%mem=8GB
%nprocshared=4
# B3LYP/6-31G(d) pop=full density=current

PFMS Time step 80

0 1
C      -0.957674      0.051129     -0.213824
F      -1.036127      0.137332     -1.631563
F      -1.617928      1.049542      0.348441
F      -1.701416     -1.159226      0.050653
S       0.859768     -0.182563      0.301562
O       1.063184     -0.201448      1.745584
O       1.498958     -1.027902     -0.567619
O       1.506969      1.408702     -0.188664
H       1.652533      1.815178      0.511499

