%chk=PFMS_1200K_step0076.chk
%mem=8GB
%nprocshared=4
# B3LYP/6-31G(d) pop=full density=current

PFMS Time step 76

0 1
C      -0.951501      0.050269     -0.212761
F      -1.038309      0.139386     -1.631945
F      -1.615533      1.049928      0.349104
F      -1.700205     -1.159203      0.051529
S       0.859541     -0.183972      0.297560
O       1.060059     -0.199334      1.744366
O       1.500415     -1.026901     -0.562595
O       1.502022      1.405741     -0.187516
H       1.664336      1.821239      0.525372

