%chk=PFMS_1200K_step0196.chk
%mem=8GB
%nprocshared=4
# B3LYP/6-31G(d) pop=full density=current

PFMS Time step 196

0 1
C      -1.158164     -0.033577     -0.310109
F      -0.967806      0.093832     -1.551833
F      -1.676817      1.035181      0.319026
F      -1.696572     -1.104126      0.027953
S       0.891048     -0.086481      0.367523
O       1.126958     -0.268193      1.816256
O       1.444179     -1.090734     -0.714047
O       1.576899      1.402242     -0.203395
H       1.525660      1.986708      0.480908

