%chk=PFMS_1200K_step0042.chk
%mem=8GB
%nprocshared=4
# B3LYP/6-31G(d) pop=full density=current

PFMS Time step 42

0 1
C      -0.917532      0.031654     -0.217085
F      -1.054264      0.157650     -1.625216
F      -1.591232      1.050981      0.353722
F      -1.682818     -1.150976      0.058950
S       0.856303     -0.180998      0.272988
O       1.029322     -0.182812      1.732101
O       1.523065     -1.039100     -0.538748
O       1.452792      1.368252     -0.186689
H       1.787200      1.955685      0.805614

