%chk=PFMS_1200K_step0084.chk
%mem=8GB
%nprocshared=4
# B3LYP/6-31G(d) pop=full density=current

PFMS Time step 84

0 1
C      -0.964241      0.051719     -0.215225
F      -1.033883      0.135299     -1.630952
F      -1.620240      1.049120      0.347766
F      -1.702470     -1.159080      0.049792
S       0.859979     -0.180827      0.305724
O       1.066218     -0.203589      1.746782
O       1.497696     -1.029346     -0.573033
O       1.511580      1.410925     -0.190732
H       1.643864      1.818182      0.513295

