%chk=PFMS_1200K_step0046.chk
%mem=8GB
%nprocshared=4
# B3LYP/6-31G(d) pop=full density=current

PFMS Time step 46

0 1
C      -0.919629      0.034718     -0.215376
F      -1.052656      0.155450     -1.626907
F      -1.594494      1.051107      0.353280
F      -1.685522     -1.152650      0.058095
S       0.856837     -0.182783      0.274848
O       1.033338     -0.184591      1.733757
O       1.519336     -1.035618     -0.539678
O       1.458770      1.372716     -0.187516
H       1.777895      1.948595      0.784190

