%chk=PFMS_1200K_step0148.chk
%mem=8GB
%nprocshared=4
# B3LYP/6-31G(d) pop=full density=current

PFMS Time step 148

0 1
C      -1.090721      0.016233     -0.269789
F      -0.994600      0.107551     -1.592719
F      -1.652044      1.041120      0.334329
F      -1.701952     -1.133051      0.036097
S       0.869621     -0.127811      0.364730
O       1.104866     -0.240675      1.775866
O       1.479578     -1.075141     -0.672953
O       1.560989      1.412829     -0.226670
H       1.583214      2.027261      0.776416

