%chk=PFMS_1200K_step0170.chk
%mem=8GB
%nprocshared=4
# B3LYP/6-31G(d) pop=full density=current

PFMS Time step 170

0 1
C      -1.128195     -0.008687     -0.292057
F      -0.981671      0.100477     -1.572854
F      -1.663003      1.038596      0.328166
F      -1.698424     -1.118371      0.031732
S       0.877892     -0.107210      0.371100
O       1.115510     -0.253763      1.793482
O       1.466391     -1.086505     -0.697642
O       1.570270      1.414663     -0.212763
H       1.556425      1.933605      0.554987

