%chk=PFMS_1200K_step0018.chk
%mem=8GB
%nprocshared=4
# B3LYP/6-31G(d) pop=full density=current

PFMS Time step 18

0 1
C      -0.916537      0.010267     -0.233378
F      -1.062291      0.170843     -1.610563
F      -1.569188      1.048481      0.355751
F      -1.663034     -1.137470      0.064033
S       0.853083     -0.163389      0.266842
O       1.002952     -0.173122      1.721063
O       1.549994     -1.069683     -0.541817
O       1.417810      1.344234     -0.173629
H       1.786617      1.908292      0.800952

