9
IRC Reverse Point 40
C    -2.283732    -1.483723    -0.435246
F    -2.817158    -1.045153     0.655383
F     0.454867     1.893079    -1.097233
F    -1.638408    -2.543583    -0.079937
S     1.116918     0.785838    -0.230721
O     0.069858     0.018253     0.315310
O     2.175200     0.255420    -1.002699
O     1.682523     1.684488     0.910752
H     2.561518     2.017668     0.682851
9
IRC Reverse Point 39
C    -2.283732    -1.483723    -0.435246
F    -2.817158    -1.045153     0.655383
F     0.454867     1.893079    -1.097233
F    -1.638408    -2.543583    -0.079937
S     1.116918     0.785838    -0.230721
O     0.069858     0.018253     0.315310
O     2.175200     0.255420    -1.002699
O     1.682523     1.684488     0.910752
H     2.561518     2.017668     0.682851
9
IRC Reverse Point 38
C    -2.283732    -1.483723    -0.435246
F    -2.817158    -1.045153     0.655383
F     0.454867     1.893079    -1.097233
F    -1.638408    -2.543583    -0.079937
S     1.116918     0.785838    -0.230721
O     0.069858     0.018253     0.315310
O     2.175200     0.255420    -1.002699
O     1.682523     1.684488     0.910752
H     2.561518     2.017668     0.682851
9
IRC Reverse Point 37
C    -2.283494    -1.483236    -0.434795
F    -2.816386    -1.045896     0.656555
F     0.455837     1.893557    -1.098159
F    -1.637054    -2.542781    -0.080553
S     1.116374     0.785913    -0.231005
O     0.068309     0.019239     0.314379
O     2.174786     0.254543    -1.002157
O     1.681880     1.684281     0.910742
H     2.561335     2.016666     0.683451
9
IRC Reverse Point 36
C    -2.282562    -1.484214    -0.434910
F    -2.815759    -1.042381     0.654547
F     0.454535     1.893695    -1.096683
F    -1.641289    -2.545877    -0.077582
S     1.117334     0.785833    -0.231551
O     0.070879     0.016436     0.313049
O     2.176339     0.257469    -1.003947
O     1.681722     1.683405     0.911378
H     2.560386     2.017920     0.684157
9
IRC Reverse Point 35
C    -2.288089    -1.479376    -0.431967
F    -2.820161    -1.061382     0.667442
F     0.463599     1.893420    -1.104929
F    -1.634277    -2.540141    -0.094984
S     1.116207     0.787490    -0.229609
O     0.062998     0.028944     0.317193
O     2.174147     0.246610    -0.994819
O     1.682868     1.689664     0.908560
H     2.564293     2.017055     0.681572
9
IRC Reverse Point 34
C    -2.280882    -1.475451    -0.431684
F    -2.826127    -1.072636     0.667144
F     0.466462     1.896503    -1.106831
F    -1.623277    -2.535557    -0.098984
S     1.111507     0.789130    -0.227565
O     0.052719     0.041340     0.323497
O     2.164799     0.236878    -0.991101
O     1.686084     1.691757     0.906304
H     2.570301     2.010320     0.677677
9
IRC Reverse Point 33
C    -2.285871    -1.474424    -0.432469
F    -2.832294    -1.080326     0.669305
F     0.466103     1.892600    -1.107139
F    -1.626004    -2.535441    -0.107501
S     1.113762     0.789353    -0.224627
O     0.056512     0.043309     0.331758
O     2.166035     0.234680    -0.987833
O     1.689965     1.697032     0.904390
H     2.573378     2.015502     0.672574
9
IRC Reverse Point 32
C    -2.277731    -1.470183    -0.431803
F    -2.826751    -1.085907     0.671489
F     0.470431     1.896676    -1.111184
F    -1.605962    -2.524573    -0.110338
S     1.105160     0.789683    -0.224038
O     0.039478     0.055809     0.332396
O     2.153134     0.222124    -0.983754
O     1.688352     1.694980     0.903318
H     2.575474     2.003677     0.672373
9
IRC Reverse Point 31
C    -2.308185    -1.468420    -0.425844
F    -2.829100    -1.103005     0.698088
F     0.480797     1.885744    -1.122857
F    -1.616880    -2.519540    -0.138742
S     1.115930     0.788627    -0.224223
O     0.051268     0.050796     0.328968
O     2.172898     0.223660    -0.973399
O     1.684721     1.704163     0.902007
H     2.570135     2.020259     0.674459
9
IRC Reverse Point 30
C    -2.318043    -1.467774    -0.425227
F    -2.832812    -1.107201     0.704389
F     0.480632     1.878077    -1.123749
F    -1.630044    -2.524266    -0.151569
S     1.122138     0.788023    -0.221859
O     0.062141     0.046408     0.335279
O     2.181378     0.226359    -0.970210
O     1.686857     1.710235     0.900879
H     2.569338     2.032425     0.670524
9
IRC Reverse Point 29
C    -2.282767    -1.459674    -0.445950
F    -2.825552    -1.119594     0.674098
F     0.464977     1.877649    -1.112088
F    -1.572601    -2.495843    -0.156998
S     1.092629     0.788227    -0.199942
O     0.023854     0.088707     0.393248
O     2.117642     0.179496    -0.959505
O     1.708451     1.716145     0.890609
H     2.594953     2.007172     0.634985
9
IRC Reverse Point 28
C    -2.205295    -1.457512    -0.481087
F    -2.893319    -1.098340     0.551756
F     0.395427     1.869721    -1.043197
F    -1.542647    -2.488168    -0.088978
S     1.077914     0.782437    -0.169525
O     0.048841     0.083359     0.490918
O     2.054296     0.172658    -0.989528
O     1.759368     1.712375     0.879801
H     2.627001     2.005754     0.568298
9
IRC Reverse Point 27
C    -2.258686    -1.456611    -0.450020
F    -2.838339    -1.147835     0.653907
F     0.462170     1.883463    -1.105351
F    -1.578958    -2.517190    -0.180302
S     1.082388     0.798498    -0.180477
O     0.009049     0.133123     0.442391
O     2.081707     0.153191    -0.944607
O     1.736382     1.736392     0.879135
H     2.625873     1.999254     0.603781
9
IRC Reverse Point 26
C    -2.170415    -1.456426    -0.510601
F    -2.936236    -1.128193     0.472749
F     0.342529     1.831099    -0.989896
F    -1.648555    -2.584155    -0.162505
S     1.089557     0.796349    -0.102639
O     0.110020     0.139381     0.667291
O     2.012506     0.139566    -0.948171
O     1.837875     1.789182     0.838671
H     2.684306     2.055482     0.453559
9
IRC Reverse Point 25
C    -2.193096    -1.436811    -0.494061
F    -2.824689    -1.153832     0.593230
F     0.405207     1.858576    -1.063427
F    -1.575884    -2.540402    -0.228536
S     1.053455     0.801680    -0.125667
O     0.001898     0.199066     0.592200
O     1.990445     0.092583    -0.911730
O     1.792561     1.769969     0.847064
H     2.671689     1.991457     0.509386
9
IRC Reverse Point 24
C    -2.177427    -1.452006    -0.518200
F    -2.909661    -1.135470     0.495026
F     0.345571     1.823568    -0.999375
F    -1.648453    -2.586378    -0.198584
S     1.083898     0.797967    -0.094228
O     0.097685     0.161820     0.684761
O     2.003300     0.120070    -0.926951
O     1.838382     1.800430     0.831615
H     2.688291     2.052285     0.444393
9
IRC Reverse Point 23
C    -2.118933    -1.436632    -0.520823
F    -2.913743    -1.118682     0.446522
F     0.326983     1.843724    -0.979420
F    -1.568622    -2.538198    -0.134020
S     1.055035     0.790786    -0.100178
O     0.066610     0.158352     0.679555
O     1.953226     0.110818    -0.953528
O     1.836093     1.762546     0.836337
H     2.684937     2.009572     0.444012
9
IRC Reverse Point 22
C    -2.099382    -1.435267    -0.520749
F    -2.933382    -1.112954     0.411928
F     0.315197     1.847170    -0.962808
F    -1.557501    -2.527534    -0.099749
S     1.052950     0.788078    -0.100817
O     0.074607     0.145455     0.683378
O     1.943827     0.117789    -0.969117
O     1.841151     1.752195     0.837864
H     2.684118     2.007352     0.438527
9
IRC Reverse Point 21
C    -2.098878    -1.448113    -0.511499
F    -2.986470    -1.107540     0.363092
F     0.298809     1.832252    -0.935034
F    -1.631231    -2.570593    -0.082635
S     1.081226     0.788962    -0.092988
O     0.137461     0.114900     0.706448
O     1.972751     0.148263    -0.982857
O     1.861317     1.770172     0.835247
H     2.686602     2.053983     0.418684
9
IRC Reverse Point 20
C    -2.109304    -1.458697    -0.513822
F    -3.015228    -1.101686     0.335257
F     0.283286     1.810856    -0.914359
F    -1.683964    -2.597796    -0.084306
S     1.102535     0.787891    -0.081637
O     0.187630     0.096168     0.735624
O     1.992871     0.163946    -0.984750
O     1.876437     1.790088     0.829400
H     2.687322     2.091515     0.397050
9
IRC Reverse Point 19
C    -2.062691    -1.416417    -0.520436
F    -2.986697    -1.084395     0.334926
F     0.274499     1.812865    -0.919365
F    -1.552247    -2.507001    -0.060391
S     1.061780     0.767012    -0.085191
O     0.131642     0.089676     0.725326
O     1.936254     0.126957    -0.992882
O     1.855146     1.743888     0.835646
H     2.663901     2.049700     0.400825
9
IRC Reverse Point 18
C    -2.139821    -1.464820    -0.494025
F    -2.998499    -1.133643     0.407882
F     0.316735     1.821141    -0.954788
F    -1.736438    -2.647151    -0.155506
S     1.113366     0.803096    -0.087145
O     0.168146     0.133406     0.714696
O     2.026931     0.162242    -0.954475
O     1.869142     1.817485     0.825417
H     2.702024     2.090529     0.416403
9
IRC Reverse Point 17
C    -2.091714    -1.427288    -0.445733
F    -2.920204    -1.156796     0.503583
F     0.396456     1.904936    -1.031610
F    -1.608783    -2.591805    -0.146922
S     1.055755     0.811726    -0.140075
O     0.012129     0.188667     0.572783
O     1.983279     0.129433    -0.959274
O     1.809885     1.747011     0.854183
H     2.684782     1.976401     0.511524
9
IRC Reverse Point 16
C    -2.014475    -1.521739    -0.468465
F    -3.058268    -1.036024     0.110619
F     0.244498     1.849370    -0.809230
F    -1.794049    -2.608574     0.140927
S     1.119387     0.790454    -0.107384
O     0.271366    -0.010581     0.680926
O     1.974795     0.272621    -1.105248
O     1.908791     1.725795     0.861484
H     2.669540     2.120963     0.414828
9
IRC Reverse Point 15
C    -2.178856    -1.492199    -0.527336
F    -3.063198    -1.107735     0.326960
F     0.252728     1.747627    -0.870774
F    -1.855954    -2.689739    -0.161540
S     1.165925     0.794979    -0.045131
O     0.317361     0.086639     0.828080
O     2.057175     0.194216    -0.963218
O     1.918930     1.869297     0.799025
H     2.707475     2.179200     0.332392
9
IRC Reverse Point 14
C    -2.157942    -1.510193    -0.548567
F    -3.158934    -1.071359     0.121093
F     0.161020     1.687813    -0.740050
F    -1.899205    -2.671967    -0.036092
S     1.202238     0.775671    -0.015508
O     0.469657     0.007398     0.910654
O     2.050863     0.249148    -1.016277
O     1.957834     1.883584     0.781088
H     2.696056     2.232189     0.262117
9
IRC Reverse Point 13
C    -2.168166    -1.566631    -0.539935
F    -3.168940    -0.992306     0.066922
F     0.131399     1.535048    -0.666706
F    -2.215327    -2.791362    -0.106853
S     1.297517     0.768445     0.025958
O     0.707466    -0.048517     1.009083
O     2.145608     0.306278    -1.007344
O     1.966058     1.975991     0.753922
H     2.625973     2.395339     0.183412
9
IRC Reverse Point 12
C    -2.032249    -1.567070    -0.474344
F    -3.139375    -0.897934    -0.510408
F    -0.022368     1.376277    -0.359578
F    -2.286585    -2.569678     0.297408
S     1.323749     0.699330     0.031875
O     1.017842    -0.274812     1.000309
O     2.008469     0.444689    -1.179022
O     1.984202     1.906672     0.768668
H     2.467901     2.464811     0.143548
9
IRC Reverse Point 11
C    -1.954032    -1.542012    -0.464474
F    -3.023989    -0.864346    -0.734911
F    -0.095094     1.247354    -0.213134
F    -2.310946    -2.370559     0.460011
S     1.320540     0.648364     0.035391
O     1.164977    -0.379092     0.983930
O     1.911628     0.485422    -1.238583
O     1.962545     1.870455     0.764858
H     2.345957     2.486698     0.125370
9
IRC Reverse Point 10
C    -1.905054    -1.519844    -0.454587
F    -2.956334    -0.866950    -0.836158
F    -0.127706     1.173952    -0.142787
F    -2.326706    -2.243576     0.530548
S     1.317350     0.619979     0.034420
O     1.238095    -0.430116     0.967236
O     1.860064     0.504768    -1.265744
O     1.945309     1.850112     0.763321
H     2.276568     2.493959     0.122209
9
IRC Reverse Point 9
C    -1.895330    -1.519326    -0.462144
F    -2.942015    -0.863023    -0.848377
F    -0.136425     1.167210    -0.130755
F    -2.309793    -2.217508     0.542920
S     1.310826     0.615051     0.035671
O     1.238612    -0.437089     0.966785
O     1.844482     0.502892    -1.268524
O     1.941944     1.844526     0.762495
H     2.269285     2.489552     0.120387
9
IRC Reverse Point 8
C    -1.848946    -1.504837    -0.475172
F    -2.877087    -0.850142    -0.908915
F    -0.170112     1.114087    -0.073670
F    -2.272921    -2.099625     0.589307
S     1.293392     0.589349     0.039255
O     1.271486    -0.472994     0.961225
O     1.784811     0.500966    -1.283155
O     1.923029     1.824107     0.757624
H     2.217934     2.481374     0.111960
9
IRC Reverse Point 7
C    -1.801327    -1.486869    -0.491227
F    -2.815700    -0.831405    -0.955927
F    -0.202842     1.057602    -0.020194
F    -2.225002    -1.982147     0.623084
S     1.274839     0.562086     0.044374
O     1.301163    -0.505752     0.959867
O     1.726459     0.491815    -1.293136
O     1.900008     1.805409     0.750943
H     2.163987     2.471544     0.100673
9
IRC Reverse Point 6
C    -1.745532    -1.468182    -0.507468
F    -2.737990    -0.800341    -1.000921
F    -0.239236     0.994342     0.039036
F    -2.163318    -1.850749     0.651540
S     1.250866     0.530420     0.050967
O     1.328633    -0.540397     0.960050
O     1.655729     0.474900    -1.302036
O     1.872641     1.783550     0.741413
H     2.099795     2.458741     0.085877
9
IRC Reverse Point 5
C    -1.659807    -1.430956    -0.530412
F    -2.630013    -0.744997    -1.041179
F    -0.293259     0.921052     0.109780
F    -2.050751    -1.686285     0.672722
S     1.208561     0.484931     0.060874
O     1.345091    -0.582674     0.966126
O     1.557267     0.437454    -1.307556
O     1.829866     1.752059     0.725894
H     2.014630     2.431700     0.062209
9
IRC Reverse Point 4
C    -1.628985    -1.424020    -0.529333
F    -2.578141    -0.728704    -1.061802
F    -0.312676     0.896160     0.140377
F    -2.027015    -1.623697     0.681104
S     1.193172     0.469373     0.062228
O     1.356136    -0.598794     0.961943
O     1.518605     0.429842    -1.311895
O     1.816058     1.740247     0.720395
H     1.984432     2.421879     0.055441
9
IRC Reverse Point 3
C    -1.644678    -1.478847    -0.504997
F    -2.463273    -0.713826    -1.120561
F    -0.321656     0.836108     0.209957
F    -2.078355    -1.510706     0.695816
S     1.189206     0.459399     0.062423
O     1.426583    -0.618379     0.933009
O     1.462009     0.445470    -1.323221
O     1.812815     1.737743     0.712747
H     1.938935     2.425323     0.053285
9
IRC Reverse Point 2
C    -1.421707    -1.324668    -0.573153
F    -2.443937    -0.662371    -1.021542
F    -0.422823     0.997481     0.164178
F    -1.681642    -1.559508     0.675892
S     1.041280     0.436727     0.069857
O     1.122294    -0.627918     0.985450
O     1.344570     0.355407    -1.307639
O     1.778219     1.657379     0.702339
H     2.005333     2.309757     0.023075
9
IRC Reverse Point 1
C    -1.325378    -1.213199    -0.491803
F    -2.302299    -0.661142    -1.130416
F    -0.433997     0.918366     0.299147
F    -1.831741    -1.514630     0.657062
S     1.041593     0.403120     0.083327
O     1.235673    -0.655258     0.988158
O     1.235193     0.340681    -1.314732
O     1.776291     1.651219     0.660785
H     1.926252     2.313128    -0.033071
9
IRC Reverse Point 0
C    -1.301407    -1.384648    -0.491872
F    -2.042927    -0.620147    -1.217158
F    -0.435866     0.977946     0.469552
F    -1.876057    -1.415922     0.659991
S     0.981335     0.417294     0.102856
O     1.219106    -0.669087     0.963219
O     1.021809     0.363169    -1.308931
O     1.826741     1.620456     0.616511
H     1.928852     2.293224    -0.075710
9
IRC Forward Point 0
C    -0.979244    -0.133868     0.028717
F    -1.481751    -0.329065    -1.170634
F    -1.431335     0.997161     0.519652
F    -1.336015    -1.135788     0.796775
S     0.917269     0.000333    -0.071561
O     1.440917    -0.974882     0.810990
O     1.220301     0.104481    -1.458193
O     1.211050     1.393382     0.599334
H     1.195296     2.101678    -0.058240
9
IRC Forward Point 1
C    -0.969827    -0.114295     0.026006
F    -1.448167    -0.505435    -1.131949
F    -1.468150     1.071949     0.320530
F    -1.305359    -0.974074     0.954827
S     0.918936    -0.007548    -0.109052
O     1.461689    -1.058821     0.668059
O     1.206573     0.193411    -1.487908
O     1.199838     1.327023     0.673811
H     1.160954     2.091224     0.082517
9
IRC Forward Point 2
C    -1.021850    -0.207033     0.009005
F    -1.527442    -0.846834    -1.039391
F    -1.316846     1.026827     0.018391
F    -1.544321    -0.899857     1.010489
S     0.896016     0.069733    -0.092666
O     1.512331    -1.009818     0.583714
O     0.999096     0.468755    -1.451651
O     1.413076     1.304303     0.735025
H     1.346428     2.117357     0.223924
9
IRC Forward Point 3
C    -0.966806    -0.115265     0.016155
F    -1.439942    -0.666394    -1.078940
F    -1.475947     1.092741     0.148167
F    -1.298183    -0.845835     1.053491
S     0.913166     0.002006    -0.133775
O     1.465358    -1.098737     0.563414
O     1.184949     0.289928    -1.499719
O     1.204438     1.281599     0.733602
H     1.169455     2.083389     0.194446
9
IRC Forward Point 4
C    -0.909271    -0.078691     0.014389
F    -1.364667    -0.827693    -0.941988
F    -1.409697     1.164293    -0.122558
F    -1.214477    -0.557703     1.180969
S     0.921687    -0.039652    -0.182898
O     1.479703    -1.207892     0.395168
O     1.142681     0.428723    -1.512941
O     1.136411     1.151211     0.811831
H     0.974118     1.990836     0.354867
9
IRC Forward Point 5
C    -1.008443    -0.180209     0.020644
F    -1.489452    -0.873285    -0.988824
F    -1.265187     1.047292    -0.055926
F    -1.551121    -0.814713     1.041751
S     0.897096     0.046987    -0.109903
O     1.529608    -1.045304     0.530762
O     0.962006     0.503013    -1.452222
O     1.401000     1.254533     0.740188
H     1.280981     2.085118     0.270369
9
IRC Forward Point 6
C    -1.044272    -0.201900     0.023076
F    -1.549116    -0.758354    -1.070586
F    -1.316885     0.999201     0.133717
F    -1.585925    -0.992977     0.942447
S     0.888475     0.079753    -0.073596
O     1.508599    -0.968545     0.644009
O     0.998811     0.413983    -1.444830
O     1.442469     1.328451     0.689643
H     1.414332     2.123820     0.152962
9
IRC Forward Point 7
C    -1.037866    -0.193781     0.024069
F    -1.531169    -0.747559    -1.075715
F    -1.343229     1.026522     0.137888
F    -1.558559    -0.981180     0.956404
S     0.894748     0.066380    -0.079211
O     1.511632    -0.988936     0.637640
O     1.012145     0.398039    -1.456005
O     1.421142     1.323589     0.694862
H     1.387643     2.120357     0.156908
9
IRC Forward Point 8
C    -1.027688    -0.180618     0.025570
F    -1.506260    -0.729217    -1.080468
F    -1.374075     1.055913     0.143414
F    -1.519038    -0.961153     0.974109
S     0.902502     0.048481    -0.087213
O     1.512891    -1.015267     0.627123
O     1.031318     0.375538    -1.468613
O     1.388795     1.315915     0.701427
H     1.348043     2.113841     0.161492
9
IRC Forward Point 9
C    -1.014631    -0.163992     0.027256
F    -1.479805    -0.705306    -1.082801
F    -1.400293     1.079216     0.149388
F    -1.473318    -0.935117     0.991714
S     0.909650     0.029686    -0.096405
O     1.510710    -1.041757     0.613540
O     1.054288     0.350418    -1.478976
O     1.349087     1.306132     0.707722
H     1.300801     2.104151     0.165402
9
IRC Forward Point 10
C    -1.000140    -0.146229     0.028701
F    -1.456875    -0.679768    -1.083194
F    -1.419271     1.095598     0.155376
F    -1.426740    -0.907421     1.008005
S     0.915036     0.012602    -0.105791
O     1.505708    -1.065703     0.599241
O     1.079990     0.326186    -1.486818
O     1.306675     1.295579     0.713013
H     1.252105     2.092587     0.168307
9
IRC Forward Point 11
C    -0.984113    -0.127520     0.029504
F    -1.439413    -0.653776    -1.083043
F    -1.433901     1.107383     0.161667
F    -1.377945    -0.879141     1.024895
S     0.918496    -0.002683    -0.115751
O     1.497721    -1.088390     0.584807
O     1.110971     0.302794    -1.493781
O     1.261691     1.284697     0.717762
H     1.202981     2.080068     0.170781
9
IRC Forward Point 12
C    -0.965550    -0.107668     0.028146
F    -1.432983    -0.628735    -1.082940
F    -1.447880     1.114005     0.168387
F    -1.320953    -0.849981     1.045256
S     0.918679    -0.015334    -0.127953
O     1.482139    -1.110348     0.569303
O     1.154685     0.279419    -1.500472
O     1.213092     1.273997     0.722916
H     1.155259     2.068077     0.174196
9
IRC Forward Point 13
C    -0.958594    -0.106125     0.015258
F    -1.469643    -0.640880    -1.075511
F    -1.464645     1.101893     0.166673
F    -1.273178    -0.840172     1.059105
S     0.905961    -0.006202    -0.142493
O     1.440369    -1.111231     0.559938
O     1.207882     0.276143    -1.501884
O     1.202238     1.274910     0.729534
H     1.166098     2.075095     0.186220
9
IRC Forward Point 14
C    -0.968886    -0.108002     0.020045
F    -1.450854    -0.654232    -1.073725
F    -1.469214     1.103261     0.155990
F    -1.300682    -0.837704     1.057916
S     0.910963    -0.003572    -0.137611
O     1.458251    -1.109008     0.555982
O     1.179549     0.284181    -1.504202
O     1.214567     1.272914     0.730251
H     1.182793     2.075595     0.192194
9
IRC Forward Point 15
C    -0.959388    -0.105790     0.011059
F    -1.437672    -0.796168    -0.997249
F    -1.467401     1.114565    -0.011940
F    -1.277125    -0.687294     1.141368
S     0.905639     0.000294    -0.164985
O     1.453829    -1.151521     0.448711
O     1.155725     0.382839    -1.512531
O     1.202103     1.216968     0.786947
H     1.180779     2.049540     0.295462
9
IRC Forward Point 16
C    -0.949090    -0.098546     0.003709
F    -1.423333    -0.929708    -0.895034
F    -1.467154     1.103474    -0.189517
F    -1.257189    -0.516565     1.208428
S     0.900689     0.003720    -0.194488
O     1.452312    -1.189489     0.329797
O     1.137429     0.480316    -1.513940
O     1.200370     1.152268     0.839016
H     1.162453     2.017962     0.408868
9
IRC Forward Point 17
C    -0.954637    -0.099374    -0.000085
F    -1.420425    -0.976891    -0.858825
F    -1.485423     1.084366    -0.244174
F    -1.256361    -0.468404     1.223072
S     0.895546     0.012058    -0.201350
O     1.446313    -1.194656     0.292062
O     1.136357     0.520509    -1.507876
O     1.196641     1.137447     0.857532
H     1.198477     2.008376     0.436484
9
IRC Forward Point 18
C    -0.956588    -0.099736    -0.000069
F    -1.421551    -0.974848    -0.861813
F    -1.490106     1.083351    -0.239807
F    -1.257267    -0.474401     1.221641
S     0.895680     0.012915    -0.200513
O     1.444797    -1.193524     0.295533
O     1.139174     0.519391    -1.507337
O     1.198342     1.140154     0.856058
H     1.204009     2.010131     0.433147
9
IRC Forward Point 19
C    -0.956298    -0.099503    -0.000212
F    -1.420869    -0.977324    -0.859397
F    -1.490818     1.082720    -0.243429
F    -1.256598    -0.470533     1.222710
S     0.895600     0.013033    -0.201136
O     1.444407    -1.194326     0.293044
O     1.138945     0.521412    -1.507280
O     1.198652     1.138651     0.857054
H     1.203466     2.009303     0.435486
9
IRC Forward Point 20
C    -0.956418    -0.099538    -0.000162
F    -1.420841    -0.976699    -0.860107
F    -1.491116     1.082834    -0.242462
F    -1.256805    -0.471561     1.222449
S     0.895649     0.013044    -0.200948
O     1.444334    -1.194165     0.293737
O     1.139061     0.520919    -1.507284
O     1.198881     1.139060     0.856775
H     1.203742     2.009539     0.434842
9
IRC Forward Point 21
C    -0.956418    -0.099538    -0.000162
F    -1.420841    -0.976699    -0.860107
F    -1.491116     1.082834    -0.242462
F    -1.256805    -0.471561     1.222449
S     0.895649     0.013044    -0.200948
O     1.444334    -1.194165     0.293737
O     1.139061     0.520919    -1.507284
O     1.198881     1.139060     0.856775
H     1.203742     2.009539     0.434842
9
IRC Forward Point 22
C    -0.956418    -0.099538    -0.000162
F    -1.420841    -0.976699    -0.860107
F    -1.491116     1.082834    -0.242462
F    -1.256805    -0.471561     1.222449
S     0.895649     0.013044    -0.200948
O     1.444334    -1.194165     0.293737
O     1.139061     0.520919    -1.507284
O     1.198881     1.139060     0.856775
H     1.203742     2.009539     0.434842
