%chk=HCF3_ADMP TRJTRY RSTF=10_600K.chk
%mem=8GB
%nprocshared=8
# B3LYP/6-31G(d) ADMP int=ultrafine

HCF3 ADMP thermal decomposition simulation targeting 600K

0 1
C       0.003939     -0.000324      0.071647
F       1.108205     -0.550870     -0.476188
F      -0.109833      1.259146     -0.401023
F      -1.066249     -0.702686     -0.357321
H       0.063937     -0.005266      1.162885

