9
Time step 0
C -0.927461 -0.007308 -0.250741
F -1.066611 0.180515 -1.595459
F -1.550095 1.044653 0.356605
F -1.644754 -1.124269 0.067626
S 0.851746 -0.145489 0.265888
O 0.980867 -0.166886 1.712394
O 1.572308 -1.099093 -0.549951
O 1.392964 1.330076 -0.156572
H 1.726694 1.783207 0.665326
9
Time step 1
C -0.926544 -0.006259 -0.249622
F -1.066414 0.179977 -1.596389
F -1.551223 1.044900 0.356562
F -1.645857 -1.125072 0.067420
S 0.851773 -0.146566 0.265902
O 0.982148 -0.167206 1.712870
O 1.571063 -1.097365 -0.549434
O 1.394326 1.330798 -0.157653
H 1.731096 1.791678 0.675179
9
Time step 2
C -0.925699 -0.005241 -0.248543
F -1.066206 0.179443 -1.597304
F -1.552334 1.045146 0.356522
F -1.646940 -1.125864 0.067220
S 0.851805 -0.147630 0.265921
O 0.983421 -0.167531 1.713345
O 1.569818 -1.095649 -0.548922
O 1.395688 1.331525 -0.158723
H 1.735407 1.800024 0.684843
9
Time step 3
C -0.924926 -0.004257 -0.247506
F -1.065988 0.178914 -1.598202
F -1.553431 1.045391 0.356484
F -1.648005 -1.126641 0.067024
S 0.851844 -0.148678 0.265945
O 0.984686 -0.167860 1.713820
O 1.568576 -1.093949 -0.548418
O 1.397051 1.332259 -0.159778
H 1.739605 1.808213 0.694267
9
Time step 4
C -0.924210 -0.003304 -0.246505
F -1.065763 0.178388 -1.599084
F -1.554515 1.045633 0.356447
F -1.649053 -1.127405 0.066831
S 0.851888 -0.149711 0.265975
O 0.985944 -0.168196 1.714294
O 1.567336 -1.092266 -0.547921
O 1.398415 1.332998 -0.160816
H 1.743682 1.816227 0.703424
9
Time step 5
C -0.923530 -0.002367 -0.245528
F -1.065534 0.177862 -1.599953
F -1.555591 1.045872 0.356411
F -1.650091 -1.128157 0.066639
S 0.851939 -0.150729 0.266009
O 0.987194 -0.168535 1.714769
O 1.566099 -1.090598 -0.547432
O 1.399780 1.333744 -0.161838
H 1.747636 1.824061 0.712309
9
Time step 6
C -0.922864 -0.001434 -0.244562
F -1.065305 0.177334 -1.600811
F -1.556665 1.046106 0.356373
F -1.651123 -1.128901 0.066446
S 0.851997 -0.151737 0.266047
O 0.988437 -0.168879 1.715244
O 1.564864 -1.088942 -0.546951
O 1.401147 1.334495 -0.162843
H 1.751470 1.831719 0.720928
9
Time step 7
C -0.922205 -0.000490 -0.243597
F -1.065076 0.176802 -1.601663
F -1.557739 1.046334 0.356334
F -1.652154 -1.129641 0.066249
S 0.852060 -0.152736 0.266087
O 0.989674 -0.169225 1.715721
O 1.563628 -1.087295 -0.546477
O 1.402517 1.335251 -0.163834
H 1.755186 1.839204 0.729291
9
Time step 8
C -0.921551 0.000469 -0.242629
F -1.064846 0.176266 -1.602511
F -1.558812 1.046556 0.356292
F -1.653182 -1.130378 0.066050
S 0.852130 -0.153730 0.266130
O 0.990905 -0.169572 1.716201
O 1.562391 -1.085654 -0.546009
O 1.403888 1.336014 -0.164811
H 1.758783 1.846518 0.737397
9
Time step 9
C -0.920912 0.001443 -0.241659
F -1.064614 0.175726 -1.603355
F -1.559883 1.046774 0.356249
F -1.654206 -1.131115 0.065849
S 0.852206 -0.154720 0.266175
O 0.992132 -0.169921 1.716683
O 1.561153 -1.084019 -0.545549
O 1.405263 1.336784 -0.165773
H 1.762257 1.853658 0.745237
9
Time step 10
C -0.920299 0.002428 -0.240691
F -1.064376 0.175184 -1.604194
F -1.560948 1.046986 0.356204
F -1.655223 -1.131849 0.065647
S 0.852287 -0.155707 0.266223
O 0.993354 -0.170270 1.717167
O 1.559912 -1.082390 -0.545096
O 1.406641 1.337563 -0.166719
H 1.765597 1.860613 0.752792
9
Time step 11
C -0.919717 0.003416 -0.239729
F -1.064133 0.174641 -1.605027
F -1.562007 1.047195 0.356157
F -1.656231 -1.132578 0.065445
S 0.852372 -0.156690 0.266276
O 0.994572 -0.170620 1.717653
O 1.558671 -1.080767 -0.544651
O 1.408023 1.338353 -0.167648
H 1.768792 1.867370 0.760036
9
Time step 12
C -0.919169 0.004402 -0.238779
F -1.063885 0.174099 -1.605850
F -1.563058 1.047398 0.356106
F -1.657230 -1.133301 0.065243
S 0.852462 -0.157669 0.266334
O 0.995785 -0.170972 1.718140
O 1.557429 -1.079152 -0.544214
O 1.409409 1.339154 -0.168559
H 1.771829 1.873914 0.766943
9
Time step 13
C -0.918653 0.005384 -0.237843
F -1.063632 0.173556 -1.606662
F -1.564101 1.047595 0.356053
F -1.658219 -1.134015 0.065041
S 0.852556 -0.158641 0.266399
O 0.996994 -0.171325 1.718628
O 1.556187 -1.077547 -0.543788
O 1.410800 1.339968 -0.169450
H 1.774702 1.880231 0.773494
9
Time step 14
C -0.918166 0.006362 -0.236921
F -1.063375 0.173014 -1.607462
F -1.565137 1.047785 0.355996
F -1.659199 -1.134719 0.064838
S 0.852654 -0.159606 0.266472
O 0.998197 -0.171680 1.719116
O 1.554946 -1.075952 -0.543371
O 1.412194 1.340797 -0.170322
H 1.777406 1.886314 0.779680
9
Time step 15
C -0.917710 0.007338 -0.236013
F -1.063113 0.172472 -1.608251
F -1.566163 1.047968 0.355937
F -1.660171 -1.135416 0.064636
S 0.852755 -0.160564 0.266552
O 0.999395 -0.172038 1.719603
O 1.553705 -1.074368 -0.542966
O 1.413593 1.341638 -0.171175
H 1.779943 1.892158 0.785505
9
Time step 16
C -0.917285 0.008314 -0.235121
F -1.062845 0.171929 -1.609030
F -1.567180 1.048144 0.355875
F -1.661134 -1.136106 0.064434
S 0.852861 -0.161514 0.266641
O 1.000587 -0.172397 1.720090
O 1.552467 -1.072795 -0.542572
O 1.414996 1.342493 -0.172010
H 1.782318 1.897765 0.790981
9
Time step 17
C -0.916895 0.009291 -0.234243
F -1.062571 0.171386 -1.609801
F -1.568188 1.048315 0.355813
F -1.662088 -1.136790 0.064233
S 0.852970 -0.162456 0.266737
O 1.001772 -0.172758 1.720577
O 1.551229 -1.071233 -0.542189
O 1.416402 1.343358 -0.172828
H 1.784540 1.903140 0.796125
9
Time step 18
C -0.916537 0.010267 -0.233378
F -1.062291 0.170843 -1.610563
F -1.569188 1.048481 0.355751
F -1.663034 -1.137470 0.064033
S 0.853083 -0.163389 0.266842
O 1.002952 -0.173122 1.721063
O 1.549994 -1.069683 -0.541817
O 1.417810 1.344234 -0.173629
H 1.786617 1.908292 0.800952
9
Time step 19
C -0.916207 0.011240 -0.232525
F -1.062007 0.170299 -1.611317
F -1.570180 1.048643 0.355688
F -1.663972 -1.138143 0.063832
S 0.853199 -0.164312 0.266954
O 1.004125 -0.173487 1.721549
O 1.548762 -1.068145 -0.541458
O 1.419222 1.345118 -0.174415
H 1.788554 1.913226 0.805474
9
Time step 20
C -0.915901 0.012208 -0.231681
F -1.061720 0.169755 -1.612062
F -1.571168 1.048802 0.355623
F -1.664902 -1.138809 0.063629
S 0.853320 -0.165224 0.267075
O 1.005293 -0.173854 1.722034
O 1.547534 -1.066620 -0.541112
O 1.420636 1.346010 -0.175185
H 1.790353 1.917944 0.809695
9
Time step 21
C -0.915615 0.013168 -0.230845
F -1.061431 0.169209 -1.612796
F -1.572153 1.048955 0.355556
F -1.665825 -1.139465 0.063424
S 0.853444 -0.166123 0.267206
O 1.006455 -0.174225 1.722518
O 1.546310 -1.065112 -0.540780
O 1.422053 1.346911 -0.175939
H 1.792010 1.922446 0.813606
9
Time step 22
C -0.915352 0.014122 -0.230020
F -1.061140 0.168662 -1.613518
F -1.573135 1.049105 0.355486
F -1.666740 -1.140111 0.063215
S 0.853572 -0.167010 0.267346
O 1.007610 -0.174599 1.723002
O 1.545094 -1.063622 -0.540464
O 1.423474 1.347820 -0.176677
H 1.793520 1.926724 0.817195
9
Time step 23
C -0.915115 0.015071 -0.229207
F -1.060846 0.168114 -1.614227
F -1.574112 1.049249 0.355414
F -1.667647 -1.140746 0.063003
S 0.853703 -0.167881 0.267498
O 1.008760 -0.174977 1.723484
O 1.543885 -1.062153 -0.540166
O 1.424898 1.348739 -0.177397
H 1.794873 1.930766 0.820441
9
Time step 24
C -0.914915 0.016017 -0.228409
F -1.060547 0.167564 -1.614923
F -1.575083 1.049388 0.355340
F -1.668542 -1.141373 0.062790
S 0.853835 -0.168737 0.267663
O 1.009903 -0.175360 1.723964
O 1.542685 -1.060706 -0.539887
O 1.426327 1.349669 -0.178098
H 1.796061 1.934560 0.823324
9
Time step 25
C -0.914755 0.016959 -0.227629
F -1.060241 0.167012 -1.615605
F -1.576046 1.049522 0.355266
F -1.669426 -1.141990 0.062576
S 0.853967 -0.169576 0.267842
O 1.011040 -0.175748 1.724442
O 1.541495 -1.059284 -0.539629
O 1.427760 1.350612 -0.178780
H 1.797076 1.938093 0.825824
9
Time step 26
C -0.914637 0.017899 -0.226868
F -1.059928 0.166460 -1.616275
F -1.577001 1.049649 0.355190
F -1.670298 -1.142599 0.062362
S 0.854101 -0.170397 0.268035
O 1.012170 -0.176140 1.724916
O 1.540316 -1.057886 -0.539392
O 1.429199 1.351567 -0.179441
H 1.797912 1.941352 0.827925
9
Time step 27
C -0.914560 0.018833 -0.226125
F -1.059609 0.165907 -1.616932
F -1.577946 1.049771 0.355112
F -1.671159 -1.143199 0.062150
S 0.854235 -0.171201 0.268242
O 1.013293 -0.176537 1.725387
O 1.539149 -1.056514 -0.539178
O 1.430644 1.352536 -0.180080
H 1.798566 1.944330 0.829618
9
Time step 28
C -0.914517 0.019759 -0.225398
F -1.059286 0.165355 -1.617577
F -1.578884 1.049886 0.355031
F -1.672010 -1.143790 0.061937
S 0.854369 -0.171987 0.268465
O 1.014409 -0.176938 1.725854
O 1.537992 -1.055167 -0.538985
O 1.432095 1.353516 -0.180696
H 1.799038 1.947025 0.830896
9
Time step 29
C -0.914507 0.020675 -0.224686
F -1.058959 0.164803 -1.618209
F -1.579815 1.049995 0.354948
F -1.672851 -1.144370 0.061725
S 0.854505 -0.172755 0.268701
O 1.015518 -0.177343 1.726317
O 1.536846 -1.053845 -0.538815
O 1.433551 1.354508 -0.181288
H 1.799329 1.949437 0.831758
9
Time step 30
C -0.914530 0.021578 -0.223989
F -1.058628 0.164253 -1.618829
F -1.580739 1.050099 0.354862
F -1.673683 -1.144939 0.061512
S 0.854643 -0.173505 0.268950
O 1.016620 -0.177749 1.726777
O 1.535711 -1.052546 -0.538665
O 1.435012 1.355510 -0.181854
H 1.799442 1.951568 0.832207
9
Time step 31
C -0.914590 0.022468 -0.223308
F -1.058292 0.163703 -1.619437
F -1.581655 1.050198 0.354773
F -1.674504 -1.145497 0.061299
S 0.854782 -0.174237 0.269211
O 1.017716 -0.178158 1.727234
O 1.534585 -1.051270 -0.538537
O 1.436477 1.356522 -0.182396
H 1.799379 1.953422 0.832245
9
Time step 32
C -0.914692 0.023347 -0.222647
F -1.057951 0.163153 -1.620030
F -1.582562 1.050293 0.354684
F -1.675313 -1.146045 0.061085
S 0.854922 -0.174953 0.269485
O 1.018805 -0.178568 1.727689
O 1.533470 -1.050018 -0.538429
O 1.437946 1.357542 -0.182912
H 1.799141 1.955002 0.831875
9
Time step 33
C -0.914835 0.024216 -0.222006
F -1.057602 0.162602 -1.620610
F -1.583459 1.050383 0.354594
F -1.676109 -1.146583 0.060871
S 0.855063 -0.175651 0.269770
O 1.019889 -0.178979 1.728142
O 1.532365 -1.048791 -0.538344
O 1.439418 1.358572 -0.183403
H 1.798730 1.956309 0.831100
9
Time step 34
C -0.915016 0.025076 -0.221386
F -1.057248 0.162052 -1.621175
F -1.584349 1.050469 0.354503
F -1.676894 -1.147110 0.060658
S 0.855203 -0.176332 0.270067
O 1.020965 -0.179392 1.728594
O 1.531272 -1.047589 -0.538282
O 1.440893 1.359612 -0.183870
H 1.798146 1.957342 0.829919
9
Time step 35
C -0.915228 0.025929 -0.220787
F -1.056889 0.161500 -1.621726
F -1.585232 1.050550 0.354411
F -1.677668 -1.147627 0.060444
S 0.855344 -0.176994 0.270378
O 1.022035 -0.179807 1.729043
O 1.530192 -1.046415 -0.538244
O 1.442372 1.360662 -0.184311
H 1.797386 1.958101 0.828328
9
Time step 36
C -0.915464 0.026774 -0.220206
F -1.056527 0.160948 -1.622262
F -1.586109 1.050625 0.354318
F -1.678433 -1.148133 0.060229
S 0.855483 -0.177636 0.270704
O 1.023098 -0.180225 1.729491
O 1.529127 -1.045271 -0.538232
O 1.443853 1.361722 -0.184727
H 1.796451 1.958582 0.826324
9
Time step 37
C -0.915722 0.027611 -0.219642
F -1.056162 0.160397 -1.622785
F -1.586982 1.050695 0.354222
F -1.679190 -1.148629 0.060014
S 0.855622 -0.178256 0.271044
O 1.024153 -0.180646 1.729935
O 1.528076 -1.044159 -0.538247
O 1.445337 1.362792 -0.185117
H 1.795340 1.958785 0.823902
9
Time step 38
C -0.916007 0.028439 -0.219095
F -1.055795 0.159846 -1.623295
F -1.587849 1.050760 0.354125
F -1.679938 -1.149116 0.059800
S 0.855759 -0.178853 0.271400
O 1.025202 -0.181071 1.730376
O 1.527042 -1.043080 -0.538290
O 1.446825 1.363870 -0.185483
H 1.794052 1.958710 0.821062
9
Time step 39
C -0.916324 0.029257 -0.218564
F -1.055422 0.159296 -1.623794
F -1.588709 1.050822 0.354026
F -1.680676 -1.149594 0.059586
S 0.855895 -0.179426 0.271773
O 1.026242 -0.181501 1.730814
O 1.526024 -1.042035 -0.538362
O 1.448314 1.364957 -0.185822
H 1.792590 1.958358 0.817804
9
Time step 40
C -0.916683 0.030066 -0.218052
F -1.055043 0.158747 -1.624281
F -1.589559 1.050879 0.353926
F -1.681402 -1.150064 0.059373
S 0.856031 -0.179974 0.272161
O 1.027276 -0.181934 1.731247
O 1.525022 -1.041024 -0.538462
O 1.449806 1.366050 -0.186136
H 1.790957 1.957732 0.814136
9
Time step 41
C -0.917086 0.030865 -0.217559
F -1.054657 0.158198 -1.624755
F -1.590400 1.050933 0.353825
F -1.682116 -1.150526 0.059162
S 0.856167 -0.180498 0.272566
O 1.028302 -0.182371 1.731676
O 1.524036 -1.040046 -0.538591
O 1.451298 1.367149 -0.186425
H 1.789159 1.956839 0.810068
9
Time step 42
C -0.917532 0.031654 -0.217085
F -1.054264 0.157650 -1.625216
F -1.591232 1.050981 0.353722
F -1.682818 -1.150976 0.058950
S 0.856303 -0.180998 0.272988
O 1.029322 -0.182812 1.732101
O 1.523065 -1.039100 -0.538748
O 1.452792 1.368252 -0.186689
H 1.787200 1.955685 0.805614
9
Time step 43
C -0.918013 0.032434 -0.216630
F -1.053867 0.157100 -1.625661
F -1.592056 1.051023 0.353616
F -1.683509 -1.151415 0.058739
S 0.856438 -0.181476 0.273426
O 1.030335 -0.183254 1.732522
O 1.522109 -1.038184 -0.538935
O 1.454286 1.369360 -0.186928
H 1.785089 1.954278 0.800788
9
Time step 44
C -0.918524 0.033206 -0.216194
F -1.053467 0.156550 -1.626092
F -1.592874 1.051057 0.353507
F -1.684189 -1.151839 0.058526
S 0.856572 -0.181932 0.273882
O 1.031342 -0.183699 1.732938
O 1.521169 -1.037298 -0.539152
O 1.455780 1.370474 -0.187146
H 1.782831 1.952623 0.795602
9
Time step 45
C -0.919062 0.033967 -0.215775
F -1.053063 0.156000 -1.626507
F -1.593687 1.051085 0.353395
F -1.684860 -1.152251 0.058311
S 0.856706 -0.182368 0.274356
O 1.032343 -0.184144 1.733350
O 1.520245 -1.036443 -0.539400
O 1.457275 1.371592 -0.187341
H 1.780432 1.950728 0.790068
9
Time step 46
C -0.919629 0.034718 -0.215376
F -1.052656 0.155450 -1.626907
F -1.594494 1.051107 0.353280
F -1.685522 -1.152650 0.058095
S 0.856837 -0.182783 0.274848
O 1.033338 -0.184591 1.733757
O 1.519336 -1.035618 -0.539678
O 1.458770 1.372716 -0.187516
H 1.777895 1.948595 0.784190
9
Time step 47
C -0.920228 0.035455 -0.214997
F -1.052244 0.154901 -1.627293
F -1.595294 1.051125 0.353163
F -1.686173 -1.153038 0.057879
S 0.856967 -0.183177 0.275360
O 1.034327 -0.185040 1.734160
O 1.518445 -1.034825 -0.539987
O 1.460267 1.373847 -0.187672
H 1.775224 1.946227 0.777974
9
Time step 48
C -0.920865 0.036177 -0.214638
F -1.051826 0.154354 -1.627665
F -1.596086 1.051139 0.353046
F -1.686813 -1.153416 0.057663
S 0.857093 -0.183548 0.275891
O 1.035310 -0.185491 1.734559
O 1.517571 -1.034064 -0.540327
O 1.461764 1.374984 -0.187809
H 1.772418 1.943625 0.771420
9
Time step 49
C -0.921540 0.036882 -0.214301
F -1.051402 0.153809 -1.628025
F -1.596870 1.051152 0.352928
F -1.687441 -1.153785 0.057447
S 0.857215 -0.183896 0.276440
O 1.036288 -0.185946 1.734955
O 1.516715 -1.033336 -0.540698
O 1.463262 1.376128 -0.187927
H 1.769480 1.940789 0.764530
9
Time step 50
C -0.922249 0.037572 -0.213984
F -1.050973 0.153265 -1.628371
F -1.597646 1.051160 0.352809
F -1.688058 -1.154142 0.057231
S 0.857335 -0.184220 0.277008
O 1.037259 -0.186404 1.735346
O 1.515878 -1.032644 -0.541100
O 1.464760 1.377277 -0.188027
H 1.766409 1.937721 0.757310
9
Time step 51
C -0.922988 0.038246 -0.213684
F -1.050540 0.152722 -1.628703
F -1.598416 1.051165 0.352688
F -1.688664 -1.154487 0.057013
S 0.857452 -0.184519 0.277594
O 1.038223 -0.186866 1.735735
O 1.515059 -1.031986 -0.541533
O 1.466258 1.378431 -0.188107
H 1.763210 1.934423 0.749767
9
Time step 52
C -0.923753 0.038906 -0.213402
F -1.050105 0.152180 -1.629018
F -1.599180 1.051164 0.352564
F -1.689260 -1.154819 0.056795
S 0.857566 -0.184793 0.278196
O 1.039180 -0.187333 1.736121
O 1.514258 -1.031365 -0.541996
O 1.467754 1.379589 -0.188169
H 1.759885 1.930898 0.741914
9
Time step 53
C -0.924545 0.039555 -0.213136
F -1.049667 0.151637 -1.629318
F -1.599939 1.051157 0.352437
F -1.689845 -1.155137 0.056574
S 0.857679 -0.185043 0.278814
O 1.040130 -0.187802 1.736504
O 1.513476 -1.030779 -0.542490
O 1.469248 1.380751 -0.188211
H 1.756442 1.927154 0.733765
9
Time step 54
C -0.925368 0.040193 -0.212890
F -1.049224 0.151093 -1.629600
F -1.600692 1.051144 0.352309
F -1.690418 -1.155441 0.056353
S 0.857790 -0.185267 0.279448
O 1.041073 -0.188275 1.736884
O 1.512711 -1.030228 -0.543015
O 1.470741 1.381915 -0.188235
H 1.752886 1.923199 0.725338
9
Time step 55
C -0.926230 0.040820 -0.212664
F -1.048776 0.150548 -1.629866
F -1.601437 1.051127 0.352178
F -1.690979 -1.155734 0.056131
S 0.857898 -0.185467 0.280096
O 1.042008 -0.188750 1.737262
O 1.511965 -1.029713 -0.543571
O 1.472230 1.383081 -0.188241
H 1.749224 1.919041 0.716647
9
Time step 56
C -0.927134 0.041435 -0.212461
F -1.048321 0.150003 -1.630116
F -1.602172 1.051106 0.352047
F -1.691527 -1.156016 0.055910
S 0.858005 -0.185642 0.280761
O 1.042935 -0.189228 1.737637
O 1.511237 -1.029233 -0.544159
O 1.473717 1.384248 -0.188230
H 1.745463 1.914692 0.707706
9
Time step 57
C -0.928080 0.042035 -0.212281
F -1.047859 0.149460 -1.630352
F -1.602898 1.051082 0.351916
F -1.692063 -1.156289 0.055690
S 0.858110 -0.185791 0.281442
O 1.043855 -0.189709 1.738009
O 1.510527 -1.028789 -0.544779
O 1.475200 1.385416 -0.188203
H 1.741608 1.910160 0.698524
9
Time step 58
C -0.929061 0.042619 -0.212122
F -1.047392 0.148918 -1.630573
F -1.603616 1.051056 0.351784
F -1.692588 -1.156551 0.055470
S 0.858212 -0.185914 0.282140
O 1.044767 -0.190192 1.738377
O 1.509837 -1.028382 -0.545431
O 1.476680 1.386585 -0.188161
H 1.737665 1.905456 0.689113
9
Time step 59
C -0.930069 0.043185 -0.211984
F -1.046922 0.148379 -1.630779
F -1.604328 1.051026 0.351650
F -1.693104 -1.156803 0.055252
S 0.858312 -0.186011 0.282857
O 1.045672 -0.190679 1.738742
O 1.509166 -1.028012 -0.546116
O 1.478157 1.387753 -0.188105
H 1.733640 1.900593 0.679483
9
Time step 60
C -0.931098 0.043735 -0.211863
F -1.046449 0.147841 -1.630972
F -1.605035 1.050991 0.351513
F -1.693611 -1.157044 0.055032
S 0.858408 -0.186082 0.283592
O 1.046569 -0.191170 1.739102
O 1.508514 -1.027680 -0.546835
O 1.479630 1.388921 -0.188036
H 1.729538 1.895586 0.669651
9
Time step 61
C -0.932147 0.044269 -0.211760
F -1.045974 0.147305 -1.631149
F -1.605737 1.050952 0.351374
F -1.694109 -1.157272 0.054813
S 0.858501 -0.186126 0.284347
O 1.047458 -0.191664 1.739457
O 1.507882 -1.027386 -0.547588
O 1.481099 1.390086 -0.187956
H 1.725368 1.890455 0.659643
9
Time step 62
C -0.933220 0.044790 -0.211676
F -1.045496 0.146769 -1.631312
F -1.606435 1.050909 0.351233
F -1.694597 -1.157489 0.054593
S 0.858590 -0.186144 0.285121
O 1.048341 -0.192162 1.739807
O 1.507268 -1.027128 -0.548376
O 1.482564 1.391248 -0.187867
H 1.721141 1.885228 0.649496
9
Time step 63
C -0.934323 0.045297 -0.211612
F -1.045013 0.146233 -1.631459
F -1.607126 1.050860 0.351090
F -1.695073 -1.157693 0.054372
S 0.858674 -0.186139 0.285913
O 1.049217 -0.192662 1.740151
O 1.506673 -1.026906 -0.549197
O 1.484023 1.392403 -0.187770
H 1.716868 1.879935 0.639256
9
Time step 64
C -0.935464 0.045790 -0.211572
F -1.044524 0.145697 -1.631590
F -1.607810 1.050808 0.350946
F -1.695536 -1.157885 0.054152
S 0.858755 -0.186109 0.286724
O 1.050087 -0.193165 1.740491
O 1.506096 -1.026718 -0.550052
O 1.485477 1.393550 -0.187670
H 1.712565 1.874613 0.628983
9
Time step 65
C -0.936644 0.046266 -0.211556
F -1.044029 0.145162 -1.631704
F -1.608485 1.050752 0.350801
F -1.695985 -1.158064 0.053932
S 0.858832 -0.186056 0.287551
O 1.050952 -0.193668 1.740826
O 1.505536 -1.026563 -0.550938
O 1.486924 1.394686 -0.187569
H 1.708247 1.869300 0.618736
9
Time step 66
C -0.937863 0.046723 -0.211564
F -1.043528 0.144628 -1.631802
F -1.609153 1.050692 0.350655
F -1.696422 -1.158229 0.053712
S 0.858906 -0.185981 0.288393
O 1.051810 -0.194173 1.741158
O 1.504993 -1.026439 -0.551856
O 1.488362 1.395807 -0.187471
H 1.703931 1.864032 0.608581
9
Time step 67
C -0.939114 0.047157 -0.211594
F -1.043023 0.144096 -1.631883
F -1.609814 1.050630 0.350507
F -1.696846 -1.158380 0.053492
S 0.858978 -0.185883 0.289251
O 1.052664 -0.194679 1.741487
O 1.504466 -1.026347 -0.552803
O 1.489792 1.396912 -0.187380
H 1.699632 1.858842 0.598577
9
Time step 68
C -0.940393 0.047569 -0.211646
F -1.042514 0.143567 -1.631948
F -1.610470 1.050564 0.350356
F -1.697260 -1.158518 0.053272
S 0.859047 -0.185762 0.290122
O 1.053511 -0.195187 1.741815
O 1.503955 -1.026285 -0.553780
O 1.491210 1.397998 -0.187300
H 1.695367 1.853760 0.588780
9
Time step 69
C -0.941696 0.047961 -0.211718
F -1.042002 0.143041 -1.631998
F -1.611121 1.050495 0.350204
F -1.697664 -1.158644 0.053053
S 0.859115 -0.185619 0.291006
O 1.054352 -0.195696 1.742141
O 1.503461 -1.026254 -0.554784
O 1.492616 1.399062 -0.187234
H 1.691150 1.848815 0.579244
9
Time step 70
C -0.943023 0.048336 -0.211809
F -1.041486 0.142517 -1.632033
F -1.611768 1.050424 0.350050
F -1.698058 -1.158758 0.052836
S 0.859181 -0.185451 0.291904
O 1.055187 -0.196209 1.742465
O 1.502982 -1.026254 -0.555818
O 1.494009 1.400104 -0.187186
H 1.686997 1.844035 0.570026
9
Time step 71
C -0.944375 0.048697 -0.211920
F -1.040965 0.141994 -1.632055
F -1.612409 1.050350 0.349895
F -1.698442 -1.158862 0.052619
S 0.859245 -0.185261 0.292815
O 1.056016 -0.196724 1.742788
O 1.502519 -1.026286 -0.556879
O 1.495388 1.401121 -0.187160
H 1.682923 1.839456 0.561184
9
Time step 72
C -0.945753 0.049045 -0.212051
F -1.040440 0.141471 -1.632064
F -1.613045 1.050272 0.349739
F -1.698816 -1.158956 0.052402
S 0.859307 -0.185047 0.293739
O 1.056837 -0.197241 1.743109
O 1.502071 -1.026349 -0.557969
O 1.496750 1.402110 -0.187159
H 1.678945 1.835118 0.552789
9
Time step 73
C -0.947155 0.049380 -0.212200
F -1.039911 0.140949 -1.632058
F -1.613675 1.050192 0.349583
F -1.699179 -1.159039 0.052186
S 0.859367 -0.184811 0.294675
O 1.057653 -0.197762 1.743427
O 1.501637 -1.026443 -0.559086
O 1.498096 1.403071 -0.187190
H 1.675079 1.831072 0.544922
9
Time step 74
C -0.948582 0.049698 -0.212368
F -1.039379 0.140427 -1.632037
F -1.614300 1.050107 0.349425
F -1.699531 -1.159109 0.051968
S 0.859426 -0.184553 0.295625
O 1.058461 -0.198284 1.743743
O 1.501217 -1.026567 -0.560230
O 1.499424 1.403999 -0.187256
H 1.671344 1.827373 0.537670
9
Time step 75
C -0.950030 0.049995 -0.212554
F -1.038845 0.139906 -1.632000
F -1.614919 1.050019 0.349266
F -1.699874 -1.159164 0.051749
S 0.859484 -0.184273 0.296586
O 1.059263 -0.198808 1.744056
O 1.500809 -1.026720 -0.561400
O 1.500733 1.404890 -0.187363
H 1.667758 1.824078 0.531125
9
Time step 76
C -0.951501 0.050269 -0.212761
F -1.038309 0.139386 -1.631945
F -1.615533 1.049928 0.349104
F -1.700205 -1.159203 0.051529
S 0.859541 -0.183972 0.297560
O 1.060059 -0.199334 1.744366
O 1.500415 -1.026901 -0.562595
O 1.502022 1.405741 -0.187516
H 1.664336 1.821239 0.525372
9
Time step 77
C -0.952999 0.050517 -0.212991
F -1.037770 0.138869 -1.631874
F -1.616141 1.049834 0.348939
F -1.700525 -1.159227 0.051308
S 0.859599 -0.183651 0.298545
O 1.060849 -0.199861 1.744674
O 1.500032 -1.027110 -0.563815
O 1.503290 1.406550 -0.187720
H 1.661095 1.818901 0.520485
9
Time step 78
C -0.954526 0.050740 -0.213244
F -1.037227 0.138354 -1.631785
F -1.616743 1.049738 0.348774
F -1.700834 -1.159238 0.051088
S 0.859656 -0.183309 0.299540
O 1.061633 -0.200388 1.744979
O 1.499662 -1.027346 -0.565059
O 1.504538 1.407314 -0.187978
H 1.658043 1.817100 0.516522
9
Time step 79
C -0.956085 0.050943 -0.213522
F -1.036680 0.137842 -1.631681
F -1.617339 1.049641 0.348607
F -1.701130 -1.159237 0.050870
S 0.859712 -0.182946 0.300546
O 1.062411 -0.200918 1.745282
O 1.499304 -1.027610 -0.566327
O 1.505764 1.408032 -0.188292
H 1.655188 1.815855 0.513520
9
Time step 80
C -0.957674 0.051129 -0.213824
F -1.036127 0.137332 -1.631563
F -1.617928 1.049542 0.348441
F -1.701416 -1.159226 0.050653
S 0.859768 -0.182563 0.301562
O 1.063184 -0.201448 1.745584
O 1.498958 -1.027902 -0.567619
O 1.506969 1.408702 -0.188664
H 1.652533 1.815178 0.511499
9
Time step 81
C -0.959289 0.051300 -0.214148
F -1.035570 0.136822 -1.631431
F -1.618512 1.049441 0.348274
F -1.701693 -1.159206 0.050439
S 0.859822 -0.182159 0.302588
O 1.063951 -0.201981 1.745884
O 1.498625 -1.028221 -0.568936
O 1.508153 1.409327 -0.189094
H 1.650078 1.815074 0.510469
9
Time step 82
C -0.960924 0.051457 -0.214490
F -1.035010 0.136314 -1.631285
F -1.619092 1.049337 0.348106
F -1.701960 -1.159176 0.050224
S 0.859875 -0.181735 0.303624
O 1.064712 -0.202515 1.746184
O 1.498304 -1.028569 -0.570278
O 1.509315 1.409905 -0.189581
H 1.647818 1.815541 0.510428
9
Time step 83
C -0.962575 0.051598 -0.214850
F -1.034447 0.135806 -1.631126
F -1.619668 1.049230 0.347937
F -1.702220 -1.159134 0.050009
S 0.859927 -0.181291 0.304669
O 1.065468 -0.203051 1.746483
O 1.497994 -1.028944 -0.571644
O 1.510458 1.410438 -0.190128
H 1.645749 1.816578 0.511372
9
Time step 84
C -0.964241 0.051719 -0.215225
F -1.033883 0.135299 -1.630952
F -1.620240 1.049120 0.347766
F -1.702470 -1.159080 0.049792
S 0.859979 -0.180827 0.305724
O 1.066218 -0.203589 1.746782
O 1.497696 -1.029346 -0.573033
O 1.511580 1.410925 -0.190732
H 1.643864 1.818182 0.513295
9
Time step 85
C -0.965926 0.051818 -0.215618
F -1.033318 0.134793 -1.630762
F -1.620808 1.049009 0.347593
F -1.702711 -1.159012 0.049573
S 0.860029 -0.180343 0.306787
O 1.066963 -0.204128 1.747082
O 1.497408 -1.029772 -0.574443
O 1.512682 1.411366 -0.191393
H 1.642155 1.820347 0.516185
9
Time step 86
C -0.967633 0.051893 -0.216031
F -1.032749 0.134289 -1.630556
F -1.621371 1.048896 0.347418
F -1.702941 -1.158931 0.049354
S 0.860079 -0.179840 0.307857
O 1.067703 -0.204670 1.747382
O 1.497129 -1.030222 -0.575874
O 1.513766 1.411762 -0.192111
H 1.640615 1.823063 0.520022
9
Time step 87
C -0.969365 0.051944 -0.216465
F -1.032176 0.133788 -1.630334
F -1.621929 1.048782 0.347243
F -1.703159 -1.158836 0.049135
S 0.860128 -0.179319 0.308932
O 1.068438 -0.205213 1.747683
O 1.496859 -1.030694 -0.577323
O 1.514830 1.412113 -0.192882
H 1.639233 1.826313 0.524776
9
Time step 88
C -0.971121 0.051974 -0.216921
F -1.031600 0.133288 -1.630095
F -1.622482 1.048666 0.347066
F -1.703365 -1.158730 0.048916
S 0.860178 -0.178780 0.310012
O 1.069167 -0.205759 1.747986
O 1.496596 -1.031187 -0.578790
O 1.515877 1.412419 -0.193703
H 1.637998 1.830068 0.530400
9
Time step 89
C -0.972897 0.051986 -0.217399
F -1.031019 0.132791 -1.629840
F -1.623032 1.048548 0.346888
F -1.703562 -1.158613 0.048700
S 0.860230 -0.178223 0.311096
O 1.069891 -0.206307 1.748290
O 1.496339 -1.031700 -0.580272
O 1.516906 1.412684 -0.194570
H 1.636896 1.834292 0.536829
9
Time step 90
C -0.974688 0.051983 -0.217897
F -1.030437 0.132294 -1.629569
F -1.623578 1.048427 0.346708
F -1.703749 -1.158485 0.048484
S 0.860283 -0.177649 0.312181
O 1.070608 -0.206857 1.748595
O 1.496089 -1.032232 -0.581768
O 1.517919 1.412910 -0.195477
H 1.635915 1.838940 0.543985
9
Time step 91
C -0.976490 0.051964 -0.218413
F -1.029853 0.131799 -1.629284
F -1.624122 1.048303 0.346526
F -1.703930 -1.158346 0.048269
S 0.860338 -0.177059 0.313268
O 1.071319 -0.207409 1.748903
O 1.495844 -1.032782 -0.583279
O 1.518916 1.413101 -0.196419
H 1.635038 1.843963 0.551782
9
Time step 92
C -0.978305 0.051926 -0.218946
F -1.029268 0.131305 -1.628985
F -1.624663 1.048178 0.346343
F -1.704102 -1.158196 0.048055
S 0.860397 -0.176454 0.314355
O 1.072023 -0.207963 1.749214
O 1.495604 -1.033349 -0.584803
O 1.519898 1.413261 -0.197391
H 1.634253 1.849311 0.560132
9
Time step 93
C -0.980137 0.051864 -0.219496
F -1.028680 0.130813 -1.628670
F -1.625200 1.048052 0.346159
F -1.704265 -1.158034 0.047841
S 0.860457 -0.175834 0.315444
O 1.072720 -0.208518 1.749528
O 1.495369 -1.033933 -0.586340
O 1.520868 1.413393 -0.198387
H 1.633546 1.854940 0.568951
9
Time step 94
C -0.981991 0.051774 -0.220066
F -1.028089 0.130323 -1.628341
F -1.625732 1.047927 0.345975
F -1.704418 -1.157859 0.047627
S 0.860519 -0.175199 0.316534
O 1.073411 -0.209075 1.749845
O 1.495139 -1.034532 -0.587889
O 1.521825 1.413500 -0.199404
H 1.632903 1.860808 0.578166
9
Time step 95
C -0.983869 0.051652 -0.220656
F -1.027494 0.129837 -1.627996
F -1.626258 1.047804 0.345790
F -1.704558 -1.157671 0.047414
S 0.860583 -0.174550 0.317625
O 1.074096 -0.209634 1.750165
O 1.494914 -1.035147 -0.589452
O 1.522770 1.413584 -0.200438
H 1.632312 1.866882 0.587714
9
Time step 96
C -0.985772 0.051499 -0.221267
F -1.026895 0.129354 -1.627637
F -1.626780 1.047683 0.345605
F -1.704687 -1.157469 0.047201
S 0.860647 -0.173887 0.318718
O 1.074776 -0.210194 1.750487
O 1.494693 -1.035776 -0.591027
O 1.523705 1.413647 -0.201485
H 1.631764 1.873134 0.597542
9
Time step 97
C -0.987691 0.051317 -0.221896
F -1.026292 0.128875 -1.627263
F -1.627299 1.047561 0.345419
F -1.704805 -1.157254 0.046989
S 0.860712 -0.173210 0.319813
O 1.075451 -0.210755 1.750811
O 1.494477 -1.036420 -0.592614
O 1.524629 1.413690 -0.202543
H 1.631248 1.879539 0.607602
9
Time step 98
C -0.989620 0.051110 -0.222542
F -1.025688 0.128399 -1.626874
F -1.627815 1.047439 0.345232
F -1.704914 -1.157025 0.046776
S 0.860778 -0.172519 0.320909
O 1.076122 -0.211318 1.751137
O 1.494266 -1.037078 -0.594213
O 1.525542 1.413714 -0.203609
H 1.630754 1.886069 0.617844
9
Time step 99
C -0.991553 0.050883 -0.223203
F -1.025083 0.127924 -1.626472
F -1.628331 1.047314 0.345042
F -1.705016 -1.156782 0.046563
S 0.860845 -0.171815 0.322008
O 1.076789 -0.211883 1.751463
O 1.494057 -1.037751 -0.595824
O 1.526444 1.413720 -0.204677
H 1.630272 1.892696 0.628218
9
Time step 100
C -0.993489 0.050640 -0.223876
F -1.024478 0.127451 -1.626055
F -1.628847 1.047186 0.344849
F -1.705112 -1.156528 0.046348
S 0.860916 -0.171098 0.323107
O 1.077453 -0.212448 1.751791
O 1.493851 -1.038437 -0.597444
O 1.527336 1.413710 -0.205745
H 1.629796 1.899389 0.638667
9
Time step 101
C -0.995431 0.050383 -0.224563
F -1.023872 0.126978 -1.625626
F -1.629361 1.047056 0.344655
F -1.705200 -1.156262 0.046132
S 0.860989 -0.170369 0.324205
O 1.078112 -0.213014 1.752120
O 1.493647 -1.039137 -0.599073
O 1.528217 1.413688 -0.206808
H 1.629317 1.906113 0.649131
9
Time step 102
C -0.997387 0.050111 -0.225264
F -1.023263 0.126507 -1.625183
F -1.629871 1.046924 0.344459
F -1.705280 -1.155985 0.045916
S 0.861066 -0.169628 0.325301
O 1.078767 -0.213581 1.752452
O 1.493443 -1.039848 -0.600710
O 1.529089 1.413654 -0.207862
H 1.628830 1.912833 0.659550
9
Time step 103
C -0.999362 0.049821 -0.225980
F -1.022652 0.126037 -1.624728
F -1.630378 1.046791 0.344263
F -1.705351 -1.155699 0.045700
S 0.861146 -0.168875 0.326394
O 1.079419 -0.214148 1.752788
O 1.493240 -1.040571 -0.602354
O 1.529952 1.413612 -0.208903
H 1.628330 1.919516 0.669871
9
Time step 104
C -1.001356 0.049511 -0.226713
F -1.022036 0.125570 -1.624261
F -1.630880 1.046658 0.344066
F -1.705412 -1.155403 0.045485
S 0.861231 -0.168112 0.327483
O 1.080066 -0.214716 1.753128
O 1.493036 -1.041303 -0.604003
O 1.530808 1.413562 -0.209928
H 1.627813 1.926133 0.680048
9
Time step 105
C -1.003367 0.049177 -0.227462
F -1.021418 0.125105 -1.623781
F -1.631379 1.046525 0.343868
F -1.705463 -1.155095 0.045271
S 0.861318 -0.167337 0.328567
O 1.080709 -0.215284 1.753475
O 1.492831 -1.042044 -0.605657
O 1.531656 1.413508 -0.210936
H 1.627276 1.932660 0.690043
9
Time step 106
C -1.005389 0.048819 -0.228227
F -1.020797 0.124644 -1.623289
F -1.631876 1.046392 0.343670
F -1.705506 -1.154776 0.045058
S 0.861409 -0.166552 0.329646
O 1.081347 -0.215854 1.753827
O 1.492626 -1.042794 -0.607315
O 1.532497 1.413449 -0.211926
H 1.626717 1.939079 0.699832
9
Time step 107
C -1.007415 0.048436 -0.229006
F -1.020177 0.124186 -1.622784
F -1.632371 1.046259 0.343471
F -1.705542 -1.154446 0.044845
S 0.861504 -0.165754 0.330720
O 1.081980 -0.216426 1.754185
O 1.492421 -1.043554 -0.608977
O 1.533330 1.413386 -0.212896
H 1.626135 1.945376 0.709395
9
Time step 108
C -1.009444 0.048032 -0.229801
F -1.019556 0.123731 -1.622265
F -1.632866 1.046124 0.343271
F -1.705571 -1.154104 0.044631
S 0.861602 -0.164945 0.331788
O 1.082609 -0.217000 1.754550
O 1.492215 -1.044322 -0.610642
O 1.534157 1.413321 -0.213847
H 1.625528 1.951539 0.718719
9
Time step 109
C -1.011476 0.047607 -0.230613
F -1.018936 0.123277 -1.621733
F -1.633359 1.045990 0.343071
F -1.705594 -1.153751 0.044417
S 0.861705 -0.164125 0.332850
O 1.083232 -0.217576 1.754921
O 1.492009 -1.045099 -0.612310
O 1.534975 1.413254 -0.214777
H 1.624895 1.957560 0.727792
9
Time step 110
C -1.013514 0.047162 -0.231441
F -1.018316 0.122825 -1.621187
F -1.633850 1.045856 0.342871
F -1.705610 -1.153389 0.044203
S 0.861811 -0.163294 0.333906
O 1.083852 -0.218155 1.755299
O 1.491802 -1.045885 -0.613979
O 1.535786 1.413186 -0.215684
H 1.624236 1.963429 0.736596
9
Time step 111
C -1.015560 0.046699 -0.232289
F -1.017694 0.122376 -1.620628
F -1.634339 1.045722 0.342671
F -1.705617 -1.153019 0.043989
S 0.861922 -0.162453 0.334954
O 1.084466 -0.218734 1.755684
O 1.491592 -1.046678 -0.615649
O 1.536588 1.413117 -0.216568
H 1.623548 1.969137 0.745113
9
Time step 112
C -1.017614 0.046217 -0.233153
F -1.017070 0.121929 -1.620056
F -1.634824 1.045589 0.342470
F -1.705618 -1.152639 0.043776
S 0.862037 -0.161603 0.335994
O 1.085077 -0.219315 1.756077
O 1.491380 -1.047476 -0.617320
O 1.537383 1.413048 -0.217425
H 1.622833 1.974672 0.753318
9
Time step 113
C -1.019675 0.045715 -0.234032
F -1.016445 0.121484 -1.619471
F -1.635308 1.045457 0.342269
F -1.705611 -1.152250 0.043563
S 0.862157 -0.160746 0.337024
O 1.085684 -0.219895 1.756478
O 1.491163 -1.048278 -0.618990
O 1.538170 1.412981 -0.218256
H 1.622088 1.980024 0.761188
9
Time step 114
C -1.021737 0.045193 -0.234923
F -1.015820 0.121041 -1.618874
F -1.635792 1.045324 0.342066
F -1.705597 -1.151850 0.043351
S 0.862282 -0.159883 0.338045
O 1.086286 -0.220475 1.756887
O 1.490942 -1.049081 -0.620659
O 1.538950 1.412914 -0.219057
H 1.621314 1.985182 0.768696
9
Time step 115
C -1.023797 0.044648 -0.235823
F -1.015195 0.120601 -1.618264
F -1.636276 1.045192 0.341861
F -1.705578 -1.151439 0.043137
S 0.862411 -0.159014 0.339056
O 1.086885 -0.221055 1.757304
O 1.490717 -1.049886 -0.622326
O 1.539724 1.412850 -0.219827
H 1.620510 1.990137 0.775821
9
Time step 116
C -1.025857 0.044081 -0.236731
F -1.014571 0.120163 -1.617643
F -1.636760 1.045059 0.341654
F -1.705553 -1.151016 0.042922
S 0.862545 -0.158138 0.340056
O 1.087480 -0.221635 1.757729
O 1.490488 -1.050692 -0.623991
O 1.540491 1.412787 -0.220566
H 1.619677 1.994881 0.782544
9
Time step 117
C -1.027919 0.043492 -0.237647
F -1.013946 0.119728 -1.617008
F -1.637242 1.044926 0.341444
F -1.705521 -1.150582 0.042706
S 0.862683 -0.157255 0.341045
O 1.088072 -0.222216 1.758161
O 1.490254 -1.051499 -0.625654
O 1.541252 1.412728 -0.221272
H 1.618819 1.999409 0.788857
9
Time step 118
C -1.029987 0.042881 -0.238574
F -1.013321 0.119294 -1.616361
F -1.637723 1.044794 0.341233
F -1.705482 -1.150138 0.042489
S 0.862826 -0.156365 0.342024
O 1.088660 -0.222798 1.758601
O 1.490017 -1.052308 -0.627312
O 1.542005 1.412670 -0.221946
H 1.617937 2.003718 0.794754
9
Time step 119
C -1.032067 0.042249 -0.239514
F -1.012693 0.118863 -1.615701
F -1.638200 1.044663 0.341022
F -1.705433 -1.149684 0.042271
S 0.862972 -0.155468 0.342993
O 1.089244 -0.223382 1.759047
O 1.489776 -1.053118 -0.628967
O 1.542750 1.412616 -0.222587
H 1.617034 2.007807 0.800236
9
Time step 120
C -1.034156 0.041596 -0.240468
F -1.012064 0.118434 -1.615030
F -1.638675 1.044533 0.340810
F -1.705376 -1.149221 0.042054
S 0.863122 -0.154563 0.343950
O 1.089825 -0.223967 1.759500
O 1.489531 -1.053931 -0.630617
O 1.543488 1.412564 -0.223196
H 1.616112 2.011675 0.805307
9
Time step 121
C -1.036250 0.040922 -0.241435
F -1.011433 0.118009 -1.614348
F -1.639149 1.044404 0.340598
F -1.705312 -1.148749 0.041839
S 0.863277 -0.153651 0.344896
O 1.090403 -0.224555 1.759961
O 1.489282 -1.054745 -0.632262
O 1.544217 1.412515 -0.223772
H 1.615173 2.015324 0.809972
9
Time step 122
C -1.038345 0.040226 -0.242414
F -1.010801 0.117588 -1.613657
F -1.639622 1.044276 0.340385
F -1.705242 -1.148267 0.041626
S 0.863438 -0.152733 0.345830
O 1.090977 -0.225143 1.760428
O 1.489027 -1.055560 -0.633901
O 1.544937 1.412469 -0.224316
H 1.614218 2.018755 0.814232
9
Time step 123
C -1.040433 0.039507 -0.243401
F -1.010170 0.117170 -1.612956
F -1.640098 1.044149 0.340170
F -1.705167 -1.147775 0.041413
S 0.863604 -0.151809 0.346751
O 1.091547 -0.225733 1.760903
O 1.488766 -1.056374 -0.635534
O 1.545649 1.412426 -0.224826
H 1.613245 2.021968 0.818087
9
Time step 124
C -1.042511 0.038765 -0.244394
F -1.009540 0.116756 -1.612247
F -1.640575 1.044022 0.339953
F -1.705089 -1.147272 0.041201
S 0.863777 -0.150880 0.347658
O 1.092115 -0.226323 1.761386
O 1.488498 -1.057187 -0.637159
O 1.546353 1.412386 -0.225304
H 1.612253 2.024960 0.821534
9
Time step 125
C -1.044582 0.038001 -0.245394
F -1.008911 0.116345 -1.611528
F -1.641054 1.043896 0.339735
F -1.705006 -1.146760 0.040989
S 0.863955 -0.149946 0.348552
O 1.092678 -0.226914 1.761877
O 1.488222 -1.057997 -0.638776
O 1.547049 1.412349 -0.225748
H 1.611240 2.027727 0.824565
9
Time step 126
C -1.046647 0.037215 -0.246399
F -1.008283 0.115936 -1.610799
F -1.641533 1.043770 0.339515
F -1.704919 -1.146238 0.040775
S 0.864139 -0.149008 0.349432
O 1.093239 -0.227506 1.762378
O 1.487938 -1.058804 -0.640384
O 1.547737 1.412316 -0.226159
H 1.610206 2.030266 0.827170
9
Time step 127
C -1.048710 0.036411 -0.247412
F -1.007655 0.115530 -1.610061
F -1.642010 1.043646 0.339294
F -1.704825 -1.145708 0.040560
S 0.864329 -0.148066 0.350297
O 1.093797 -0.228099 1.762888
O 1.487647 -1.059607 -0.641983
O 1.548417 1.412288 -0.226536
H 1.609148 2.032570 0.829339
9
Time step 128
C -1.050774 0.035591 -0.248433
F -1.007026 0.115125 -1.609312
F -1.642487 1.043523 0.339073
F -1.704726 -1.145170 0.040345
S 0.864523 -0.147120 0.351146
O 1.094352 -0.228693 1.763408
O 1.487348 -1.060406 -0.643572
O 1.549090 1.412265 -0.226879
H 1.608069 2.034636 0.831064
9
Time step 129
C -1.052837 0.034757 -0.249462
F -1.006397 0.114722 -1.608554
F -1.642962 1.043401 0.338851
F -1.704621 -1.144625 0.040130
S 0.864722 -0.146171 0.351981
O 1.094904 -0.229289 1.763938
O 1.487041 -1.061202 -0.645152
O 1.549756 1.412247 -0.227187
H 1.606970 2.036461 0.832340
9
Time step 130
C -1.054897 0.033909 -0.250499
F -1.005768 0.114321 -1.607787
F -1.643438 1.043278 0.338627
F -1.704511 -1.144074 0.039916
S 0.864926 -0.145219 0.352800
O 1.095454 -0.229886 1.764480
O 1.486726 -1.061994 -0.646722
O 1.550415 1.412236 -0.227461
H 1.605851 2.038045 0.833166
9
Time step 131
C -1.056952 0.033048 -0.251541
F -1.005139 0.113923 -1.607012
F -1.643914 1.043155 0.338403
F -1.704397 -1.143516 0.039702
S 0.865136 -0.144264 0.353604
O 1.096001 -0.230484 1.765032
O 1.486404 -1.062781 -0.648283
O 1.551068 1.412230 -0.227701
H 1.604715 2.039390 0.833547
9
Time step 132
C -1.059001 0.032173 -0.252587
F -1.004510 0.113527 -1.606230
F -1.644390 1.043032 0.338176
F -1.704280 -1.142952 0.039489
S 0.865352 -0.143307 0.354392
O 1.096545 -0.231083 1.765594
O 1.486073 -1.063563 -0.649834
O 1.551714 1.412231 -0.227906
H 1.603563 2.040502 0.833489
9
Time step 133
C -1.061044 0.031282 -0.253637
F -1.003882 0.113135 -1.605441
F -1.644868 1.042908 0.337947
F -1.704160 -1.142380 0.039277
S 0.865574 -0.142349 0.355165
O 1.097086 -0.231681 1.766167
O 1.485734 -1.064340 -0.651375
O 1.552353 1.412237 -0.228078
H 1.602394 2.041386 0.833003
9
Time step 134
C -1.063082 0.030374 -0.254690
F -1.003254 0.112746 -1.604644
F -1.645344 1.042784 0.337715
F -1.704037 -1.141801 0.039065
S 0.865802 -0.141388 0.355922
O 1.097625 -0.232280 1.766750
O 1.485386 -1.065110 -0.652905
O 1.552985 1.412247 -0.228216
H 1.601210 2.042046 0.832098
9
Time step 135
C -1.065117 0.029451 -0.255747
F -1.002627 0.112359 -1.603838
F -1.645820 1.042660 0.337481
F -1.703909 -1.141214 0.038852
S 0.866036 -0.140426 0.356663
O 1.098160 -0.232879 1.767343
O 1.485029 -1.065875 -0.654425
O 1.553609 1.412262 -0.228321
H 1.600010 2.042485 0.830784
9
Time step 136
C -1.067148 0.028512 -0.256809
F -1.002001 0.111975 -1.603023
F -1.646294 1.042536 0.337246
F -1.703777 -1.140620 0.038639
S 0.866276 -0.139462 0.357388
O 1.098693 -0.233478 1.767944
O 1.484663 -1.066633 -0.655932
O 1.554225 1.412280 -0.228394
H 1.598792 2.042704 0.829069
9
Time step 137
C -1.069171 0.027561 -0.257877
F -1.001376 0.111592 -1.602200
F -1.646769 1.042412 0.337010
F -1.703640 -1.140018 0.038425
S 0.866522 -0.138496 0.358096
O 1.099223 -0.234077 1.768555
O 1.484289 -1.067385 -0.657427
O 1.554833 1.412302 -0.228435
H 1.597558 2.042699 0.826953
9
Time step 138
C -1.071183 0.026597 -0.258951
F -1.000753 0.111210 -1.601368
F -1.647244 1.042289 0.336773
F -1.703500 -1.139409 0.038211
S 0.866774 -0.137528 0.358787
O 1.099749 -0.234677 1.769175
O 1.483906 -1.068130 -0.658909
O 1.555432 1.412326 -0.228442
H 1.596308 2.042467 0.824435
9
Time step 139
C -1.073182 0.025620 -0.260030
F -1.000133 0.110830 -1.600528
F -1.647721 1.042165 0.336536
F -1.703357 -1.138794 0.037997
S 0.867032 -0.136558 0.359461
O 1.100273 -0.235277 1.769804
O 1.483514 -1.068868 -0.660378
O 1.556023 1.412354 -0.228416
H 1.595043 2.042002 0.821511
9
Time step 140
C -1.075168 0.024630 -0.261114
F -0.999515 0.110453 -1.599682
F -1.648199 1.042043 0.336297
F -1.703211 -1.138173 0.037784
S 0.867297 -0.135586 0.360118
O 1.100793 -0.235877 1.770442
O 1.483114 -1.069600 -0.661834
O 1.556605 1.412386 -0.228356
H 1.593764 2.041299 0.818172
9
Time step 141
C -1.077145 0.023625 -0.262201
F -0.998897 0.110079 -1.598830
F -1.648678 1.041923 0.336058
F -1.703063 -1.137547 0.037571
S 0.867567 -0.134612 0.360758
O 1.101311 -0.236477 1.771089
O 1.482705 -1.070324 -0.663277
O 1.557180 1.412422 -0.228263
H 1.592474 2.040356 0.814413
9
Time step 142
C -1.079115 0.022603 -0.263290
F -0.998281 0.109709 -1.597972
F -1.649158 1.041805 0.335817
F -1.702911 -1.136917 0.037360
S 0.867844 -0.133638 0.361380
O 1.101825 -0.237076 1.771745
O 1.482286 -1.071041 -0.664706
O 1.557748 1.412464 -0.228135
H 1.591173 2.039172 0.810230
9
Time step 143
C -1.081078 0.021565 -0.264380
F -0.997664 0.109343 -1.597109
F -1.649636 1.041690 0.335575
F -1.702756 -1.136283 0.037149
S 0.868126 -0.132664 0.361985
O 1.102337 -0.237676 1.772410
O 1.481859 -1.071750 -0.666121
O 1.558308 1.412512 -0.227973
H 1.589863 2.037751 0.805621
9
Time step 144
C -1.083035 0.020514 -0.265470
F -0.997048 0.108980 -1.596240
F -1.650115 1.041576 0.335331
F -1.702598 -1.135645 0.036939
S 0.868413 -0.131690 0.362571
O 1.102847 -0.238275 1.773084
O 1.481422 -1.072449 -0.667521
O 1.558860 1.412565 -0.227777
H 1.588545 2.036096 0.800591
9
Time step 145
C -1.084982 0.019453 -0.266557
F -0.996433 0.108620 -1.595366
F -1.650594 1.041462 0.335084
F -1.702438 -1.135003 0.036729
S 0.868707 -0.130718 0.363140
O 1.103354 -0.238874 1.773767
O 1.480976 -1.073139 -0.668905
O 1.559405 1.412624 -0.227549
H 1.587220 2.034214 0.795147
9
Time step 146
C -1.086913 0.018385 -0.267640
F -0.995820 0.108262 -1.594487
F -1.651074 1.041349 0.334835
F -1.702277 -1.134356 0.036518
S 0.869006 -0.129747 0.363689
O 1.103860 -0.239474 1.774458
O 1.480520 -1.073817 -0.670272
O 1.559941 1.412688 -0.227288
H 1.585889 2.032111 0.789298
9
Time step 147
C -1.088826 0.017312 -0.268717
F -0.995209 0.107905 -1.593605
F -1.651558 1.041235 0.334583
F -1.702115 -1.133705 0.036307
S 0.869310 -0.128778 0.364219
O 1.104364 -0.240074 1.775158
O 1.480054 -1.074485 -0.671622
O 1.560470 1.412756 -0.226995
H 1.584553 2.029792 0.783052
9
Time step 148
C -1.090721 0.016233 -0.269789
F -0.994600 0.107551 -1.592719
F -1.652044 1.041120 0.334329
F -1.701952 -1.133051 0.036097
S 0.869621 -0.127811 0.364730
O 1.104866 -0.240675 1.775866
O 1.479578 -1.075141 -0.672953
O 1.560989 1.412829 -0.226670
H 1.583214 2.027261 0.776416
9
Time step 149
C -1.092601 0.015148 -0.270857
F -0.993993 0.107199 -1.591830
F -1.652533 1.041006 0.334072
F -1.701789 -1.132393 0.035887
S 0.869938 -0.126846 0.365222
O 1.105367 -0.241276 1.776582
O 1.479092 -1.075786 -0.674266
O 1.561501 1.412905 -0.226313
H 1.581875 2.024520 0.769392
9
Time step 150
C -1.094468 0.014053 -0.271923
F -0.993388 0.106851 -1.590939
F -1.653022 1.040893 0.333813
F -1.701624 -1.131732 0.035678
S 0.870261 -0.125883 0.365694
O 1.105867 -0.241877 1.777306
O 1.478595 -1.076420 -0.675561
O 1.562003 1.412986 -0.225923
H 1.580537 2.021572 0.761981
9
Time step 151
C -1.096324 0.012946 -0.272987
F -0.992782 0.106507 -1.590046
F -1.653511 1.040780 0.333553
F -1.701457 -1.131069 0.035472
S 0.870589 -0.124921 0.366147
O 1.106364 -0.242478 1.778039
O 1.478088 -1.077043 -0.676839
O 1.562497 1.413069 -0.225501
H 1.579204 2.018417 0.754181
9
Time step 152
C -1.098169 0.011828 -0.274051
F -0.992178 0.106168 -1.589150
F -1.653999 1.040669 0.333292
F -1.701289 -1.130404 0.035267
S 0.870922 -0.123961 0.366580
O 1.106861 -0.243077 1.778781
O 1.477569 -1.077654 -0.678098
O 1.562983 1.413157 -0.225046
H 1.577878 2.015059 0.745991
9
Time step 153
C -1.099998 0.010700 -0.275114
F -0.991575 0.105832 -1.588251
F -1.654488 1.040558 0.333029
F -1.701120 -1.129737 0.035064
S 0.871261 -0.123002 0.366994
O 1.107355 -0.243676 1.779532
O 1.477040 -1.078255 -0.679341
O 1.563460 1.413248 -0.224558
H 1.576560 2.011503 0.737417
9
Time step 154
C -1.101807 0.009566 -0.276175
F -0.990975 0.105500 -1.587350
F -1.654978 1.040446 0.332764
F -1.700952 -1.129068 0.034862
S 0.871605 -0.122046 0.367388
O 1.107849 -0.244275 1.780294
O 1.476500 -1.078844 -0.680566
O 1.563929 1.413343 -0.224039
H 1.575253 2.007757 0.728468
9
Time step 155
C -1.103592 0.008429 -0.277230
F -0.990379 0.105169 -1.586446
F -1.655471 1.040334 0.332497
F -1.700786 -1.128397 0.034659
S 0.871954 -0.121091 0.367763
O 1.108342 -0.244873 1.781066
O 1.475949 -1.079422 -0.681774
O 1.564390 1.413441 -0.223490
H 1.573957 2.003829 0.719160
9
Time step 156
C -1.105354 0.007291 -0.278279
F -0.989786 0.104839 -1.585540
F -1.655967 1.040220 0.332227
F -1.700622 -1.127724 0.034456
S 0.872309 -0.120139 0.368119
O 1.108834 -0.245471 1.781847
O 1.475388 -1.079987 -0.682965
O 1.564841 1.413542 -0.222911
H 1.572674 1.999734 0.709517
9
Time step 157
C -1.107095 0.006152 -0.279320
F -0.989197 0.104511 -1.584632
F -1.656463 1.040105 0.331954
F -1.700459 -1.127049 0.034252
S 0.872670 -0.119190 0.368456
O 1.109324 -0.246069 1.782638
O 1.474816 -1.080541 -0.684137
O 1.565285 1.413644 -0.222306
H 1.571405 1.995483 0.699565
9
Time step 158
C -1.108821 0.005010 -0.280353
F -0.988610 0.104184 -1.583723
F -1.656961 1.039989 0.331679
F -1.700296 -1.126374 0.034048
S 0.873036 -0.118243 0.368773
O 1.109813 -0.246667 1.783437
O 1.474235 -1.081083 -0.685292
O 1.565719 1.413746 -0.221675
H 1.570151 1.991093 0.689331
9
Time step 159
C -1.110537 0.003865 -0.281379
F -0.988024 0.103860 -1.582813
F -1.657457 1.039875 0.331401
F -1.700132 -1.125697 0.033844
S 0.873408 -0.117299 0.369071
O 1.110300 -0.247265 1.784243
O 1.473643 -1.081612 -0.686428
O 1.566144 1.413849 -0.221021
H 1.568912 1.986578 0.678843
9
Time step 160
C -1.112244 0.002714 -0.282397
F -0.987438 0.103539 -1.581903
F -1.657953 1.039760 0.331121
F -1.699967 -1.125020 0.033643
S 0.873786 -0.116359 0.369350
O 1.110785 -0.247862 1.785055
O 1.473041 -1.082127 -0.687544
O 1.566561 1.413951 -0.220344
H 1.567691 1.981953 0.668125
9
Time step 161
C -1.113939 0.001558 -0.283409
F -0.986852 0.103221 -1.580993
F -1.658449 1.039646 0.330839
F -1.699801 -1.124343 0.033444
S 0.874170 -0.115423 0.369610
O 1.111267 -0.248458 1.785872
O 1.472427 -1.082629 -0.688642
O 1.566970 1.414051 -0.219646
H 1.566487 1.977231 0.657201
9
Time step 162
C -1.115616 0.000400 -0.284412
F -0.986267 0.102907 -1.580083
F -1.658946 1.039532 0.330554
F -1.699636 -1.123666 0.033247
S 0.874559 -0.114492 0.369851
O 1.111747 -0.249054 1.786695
O 1.471801 -1.083117 -0.689719
O 1.567369 1.414149 -0.218928
H 1.565301 1.972427 0.646094
9
Time step 163
C -1.117270 -0.000756 -0.285406
F -0.985685 0.102595 -1.579175
F -1.659446 1.039417 0.330266
F -1.699473 -1.122991 0.033052
S 0.874955 -0.113565 0.370073
O 1.112224 -0.249647 1.787523
O 1.471163 -1.083591 -0.690777
O 1.567761 1.414243 -0.218192
H 1.564133 1.967555 0.634831
9
Time step 164
C -1.118896 -0.001906 -0.286389
F -0.985105 0.102285 -1.578267
F -1.659950 1.039301 0.329976
F -1.699314 -1.122318 0.032859
S 0.875358 -0.112643 0.370276
O 1.112699 -0.250240 1.788358
O 1.470513 -1.084051 -0.691816
O 1.568144 1.414332 -0.217440
H 1.562983 1.962634 0.623441
9
Time step 165
C -1.120496 -0.003050 -0.287362
F -0.984527 0.101978 -1.577361
F -1.660457 1.039184 0.329682
F -1.699159 -1.121650 0.032667
S 0.875767 -0.111725 0.370460
O 1.113172 -0.250831 1.789198
O 1.469852 -1.084496 -0.692835
O 1.568519 1.414414 -0.216675
H 1.561850 1.957685 0.611963
9
Time step 166
C -1.122072 -0.004186 -0.288325
F -0.983952 0.101673 -1.576456
F -1.660966 1.039066 0.329385
F -1.699007 -1.120986 0.032477
S 0.876181 -0.110813 0.370624
O 1.113643 -0.251421 1.790044
O 1.469180 -1.084927 -0.693835
O 1.568885 1.414489 -0.215900
H 1.560734 1.952734 0.600441
9
Time step 167
C -1.123628 -0.005317 -0.289276
F -0.983379 0.101369 -1.575552
F -1.661475 1.038948 0.329085
F -1.698858 -1.120327 0.032289
S 0.876601 -0.109904 0.370771
O 1.114113 -0.252009 1.790897
O 1.468498 -1.085344 -0.694817
O 1.569243 1.414553 -0.215118
H 1.559636 1.947812 0.588927
9
Time step 168
C -1.125168 -0.006443 -0.290216
F -0.982807 0.101069 -1.574649
F -1.661984 1.038831 0.328781
F -1.698711 -1.119672 0.032102
S 0.877026 -0.109001 0.370899
O 1.114580 -0.252596 1.791755
O 1.467805 -1.085746 -0.695779
O 1.569593 1.414605 -0.214332
H 1.558552 1.942956 0.577475
9
Time step 169
C -1.126692 -0.007566 -0.291143
F -0.982238 0.100771 -1.573750
F -1.662493 1.038713 0.328475
F -1.698566 -1.119020 0.031916
S 0.877456 -0.108102 0.371008
O 1.115046 -0.253180 1.792617
O 1.467103 -1.086133 -0.696720
O 1.569936 1.414642 -0.213546
H 1.557482 1.938206 0.566143
9
Time step 170
C -1.128195 -0.008687 -0.292057
F -0.981671 0.100477 -1.572854
F -1.663003 1.038596 0.328166
F -1.698424 -1.118371 0.031732
S 0.877892 -0.107210 0.371100
O 1.115510 -0.253763 1.793482
O 1.466391 -1.086505 -0.697642
O 1.570270 1.414663 -0.212763
H 1.556425 1.933605 0.554987
9
Time step 171
C -1.129674 -0.009803 -0.292957
F -0.981107 0.100185 -1.571962
F -1.663515 1.038478 0.327854
F -1.698285 -1.117725 0.031549
S 0.878333 -0.106324 0.371173
O 1.115973 -0.254344 1.794351
O 1.465668 -1.086862 -0.698541
O 1.570598 1.414664 -0.211987
H 1.555378 1.929198 0.544064
9
Time step 172
C -1.131126 -0.010914 -0.293840
F -0.980547 0.099896 -1.571075
F -1.664030 1.038360 0.327540
F -1.698150 -1.117084 0.031368
S 0.878780 -0.105445 0.371228
O 1.116433 -0.254922 1.795221
O 1.464936 -1.087203 -0.699418
O 1.570918 1.414644 -0.211222
H 1.554339 1.925031 0.533429
9
Time step 173
C -1.132551 -0.012017 -0.294709
F -0.979990 0.099611 -1.570194
F -1.664548 1.038241 0.327223
F -1.698021 -1.116447 0.031189
S 0.879234 -0.104573 0.371264
O 1.116892 -0.255498 1.796094
O 1.464192 -1.087529 -0.700273
O 1.571230 1.414600 -0.210470
H 1.553306 1.921150 0.523141
9
Time step 174
C -1.133951 -0.013111 -0.295565
F -0.979436 0.099329 -1.569318
F -1.665067 1.038122 0.326904
F -1.697897 -1.115817 0.031013
S 0.879694 -0.103708 0.371282
O 1.117348 -0.256072 1.796968
O 1.463438 -1.087840 -0.701105
O 1.571536 1.414529 -0.209736
H 1.552277 1.917601 0.513259
9
Time step 175
C -1.135331 -0.014197 -0.296408
F -0.978883 0.099051 -1.568446
F -1.665586 1.038002 0.326583
F -1.697777 -1.115195 0.030840
S 0.880159 -0.102850 0.371282
O 1.117802 -0.256645 1.797843
O 1.462672 -1.088135 -0.701914
O 1.571834 1.414428 -0.209025
H 1.551250 1.914429 0.503844
9
Time step 176
C -1.136691 -0.015273 -0.297241
F -0.978330 0.098777 -1.567580
F -1.666105 1.037880 0.326259
F -1.697661 -1.114578 0.030671
S 0.880629 -0.101998 0.371265
O 1.118254 -0.257216 1.798720
O 1.461896 -1.088416 -0.702702
O 1.572125 1.414295 -0.208340
H 1.550223 1.911681 0.494963
9
Time step 177
C -1.138031 -0.016339 -0.298061
F -0.977779 0.098507 -1.566718
F -1.666625 1.037758 0.325932
F -1.697547 -1.113969 0.030506
S 0.881105 -0.101153 0.371232
O 1.118704 -0.257785 1.799598
O 1.461109 -1.088681 -0.703469
O 1.572409 1.414126 -0.207685
H 1.549193 1.909400 0.486682
9
Time step 178
C -1.139348 -0.017395 -0.298868
F -0.977230 0.098239 -1.565862
F -1.667145 1.037634 0.325602
F -1.697438 -1.113365 0.030344
S 0.881586 -0.100315 0.371182
O 1.119152 -0.258352 1.800478
O 1.460311 -1.088932 -0.704216
O 1.572688 1.413920 -0.207066
H 1.548158 1.907633 0.479066
9
Time step 179
C -1.140636 -0.018438 -0.299658
F -0.976685 0.097973 -1.565012
F -1.667669 1.037509 0.325269
F -1.697333 -1.112767 0.030184
S 0.882072 -0.099484 0.371117
O 1.119598 -0.258917 1.801358
O 1.459502 -1.089167 -0.704943
O 1.572960 1.413672 -0.206485
H 1.547113 1.906423 0.472179
9
Time step 180
C -1.141893 -0.019466 -0.300428
F -0.976143 0.097710 -1.564169
F -1.668196 1.037382 0.324930
F -1.697234 -1.112177 0.030027
S 0.882563 -0.098660 0.371035
O 1.120043 -0.259480 1.802239
O 1.458683 -1.089388 -0.705650
O 1.573227 1.413382 -0.205947
H 1.546055 1.905814 0.466075
9
Time step 181
C -1.143116 -0.020478 -0.301176
F -0.975605 0.097448 -1.563333
F -1.668726 1.037253 0.324587
F -1.697141 -1.111594 0.029870
S 0.883059 -0.097844 0.370938
O 1.120486 -0.260042 1.803120
O 1.457852 -1.089593 -0.706337
O 1.573490 1.413045 -0.205453
H 1.544981 1.905845 0.460802
9
Time step 182
C -1.144307 -0.021474 -0.301902
F -0.975071 0.097189 -1.562505
F -1.669259 1.037122 0.324239
F -1.697054 -1.111020 0.029716
S 0.883560 -0.097034 0.370824
O 1.120929 -0.260601 1.804002
O 1.457010 -1.089782 -0.707002
O 1.573747 1.412661 -0.205007
H 1.543885 1.906551 0.456398
9
Time step 183
C -1.145472 -0.022455 -0.302609
F -0.974540 0.096932 -1.561684
F -1.669793 1.036991 0.323887
F -1.696974 -1.110456 0.029565
S 0.884065 -0.096232 0.370693
O 1.121370 -0.261159 1.804885
O 1.456158 -1.089956 -0.707646
O 1.573999 1.412227 -0.204609
H 1.542765 1.907960 0.452886
9
Time step 184
C -1.146613 -0.023421 -0.303298
F -0.974010 0.096678 -1.560869
F -1.670326 1.036859 0.323531
F -1.696899 -1.109902 0.029417
S 0.884574 -0.095437 0.370545
O 1.121810 -0.261714 1.805767
O 1.455295 -1.090115 -0.708268
O 1.574247 1.411742 -0.204261
H 1.541618 1.910094 0.450283
9
Time step 185
C -1.147731 -0.024374 -0.303973
F -0.973481 0.096427 -1.560062
F -1.670859 1.036726 0.323172
F -1.696830 -1.109357 0.029273
S 0.885088 -0.094649 0.370380
O 1.122248 -0.262268 1.806650
O 1.454422 -1.090257 -0.708868
O 1.574491 1.411205 -0.203961
H 1.540441 1.912962 0.448590
9
Time step 186
C -1.148826 -0.025313 -0.304633
F -0.972954 0.096179 -1.559262
F -1.671390 1.036592 0.322811
F -1.696766 -1.108821 0.029133
S 0.885605 -0.093867 0.370197
O 1.122685 -0.262819 1.807532
O 1.453540 -1.090383 -0.709446
O 1.574730 1.410615 -0.203710
H 1.539233 1.916565 0.447799
9
Time step 187
C -1.149894 -0.026237 -0.305277
F -0.972428 0.095933 -1.558471
F -1.671923 1.036457 0.322448
F -1.696710 -1.108295 0.028997
S 0.886127 -0.093092 0.369997
O 1.123120 -0.263369 1.808413
O 1.452648 -1.090493 -0.710002
O 1.574965 1.409974 -0.203507
H 1.537994 1.920891 0.447888
9
Time step 188
C -1.150932 -0.027144 -0.305904
F -0.971906 0.095690 -1.557689
F -1.672458 1.036321 0.322083
F -1.696662 -1.107780 0.028866
S 0.886653 -0.092325 0.369781
O 1.123554 -0.263915 1.809294
O 1.451746 -1.090587 -0.710536
O 1.575197 1.409282 -0.203349
H 1.536724 1.925919 0.448827
9
Time step 189
C -1.151939 -0.028029 -0.306510
F -0.971386 0.095448 -1.556917
F -1.672995 1.036183 0.321715
F -1.696622 -1.107275 0.028738
S 0.887185 -0.091565 0.369549
O 1.123985 -0.264460 1.810174
O 1.450835 -1.090665 -0.711050
O 1.575424 1.408542 -0.203236
H 1.535426 1.931618 0.450576
9
Time step 190
C -1.152913 -0.028892 -0.307093
F -0.970869 0.095208 -1.556157
F -1.673536 1.036044 0.321344
F -1.696590 -1.106784 0.028613
S 0.887722 -0.090813 0.369302
O 1.124415 -0.265002 1.811053
O 1.449914 -1.090726 -0.711542
O 1.575648 1.407756 -0.203163
H 1.534100 1.937952 0.453087
9
Time step 191
C -1.153858 -0.029730 -0.307652
F -0.970355 0.094971 -1.555409
F -1.674079 1.035905 0.320968
F -1.696568 -1.106307 0.028492
S 0.888264 -0.090069 0.369040
O 1.124844 -0.265541 1.811930
O 1.448983 -1.090770 -0.712013
O 1.575868 1.406928 -0.203128
H 1.532749 1.944877 0.456305
9
Time step 192
C -1.154775 -0.030545 -0.308188
F -0.969842 0.094736 -1.554672
F -1.674624 1.035763 0.320588
F -1.696553 -1.105844 0.028375
S 0.888811 -0.089334 0.368764
O 1.125270 -0.266078 1.812804
O 1.448042 -1.090798 -0.712463
O 1.576084 1.406059 -0.203127
H 1.531376 1.952347 0.460172
9
Time step 193
C -1.155666 -0.031335 -0.308700
F -0.969330 0.094505 -1.553946
F -1.675171 1.035621 0.320204
F -1.696545 -1.105396 0.028263
S 0.889363 -0.088607 0.368473
O 1.125695 -0.266612 1.813675
O 1.447091 -1.090809 -0.712891
O 1.576295 1.405154 -0.203158
H 1.529980 1.960313 0.464627
9
Time step 194
C -1.156529 -0.032104 -0.309191
F -0.968820 0.094277 -1.553230
F -1.675718 1.035476 0.319815
F -1.696546 -1.104960 0.028155
S 0.889920 -0.087889 0.368170
O 1.126119 -0.267142 1.814542
O 1.446130 -1.090802 -0.713298
O 1.576501 1.404213 -0.203215
H 1.528562 1.968729 0.469609
9
Time step 195
C -1.157363 -0.032851 -0.309661
F -0.968312 0.094053 -1.552526
F -1.676266 1.035330 0.319422
F -1.696555 -1.104537 0.028052
S 0.890482 -0.087180 0.367853
O 1.126539 -0.267669 1.815402
O 1.445159 -1.090777 -0.713683
O 1.576703 1.403242 -0.203295
H 1.527122 1.977543 0.475056
9
Time step 196
C -1.158164 -0.033577 -0.310109
F -0.967806 0.093832 -1.551833
F -1.676817 1.035181 0.319026
F -1.696572 -1.104126 0.027953
S 0.891048 -0.086481 0.367523
O 1.126958 -0.268193 1.816256
O 1.444179 -1.090734 -0.714047
O 1.576899 1.402242 -0.203395
H 1.525660 1.986708 0.480908
9
Time step 197
C -1.158931 -0.034281 -0.310535
F -0.967303 0.093614 -1.551152
F -1.677370 1.035031 0.318626
F -1.696598 -1.103727 0.027859
S 0.891619 -0.085790 0.367182
O 1.127373 -0.268713 1.817102
O 1.443190 -1.090673 -0.714388
O 1.577091 1.401217 -0.203510
H 1.524177 1.996173 0.487105
9
Time step 198
C -1.159665 -0.034962 -0.310939
F -0.966803 0.093400 -1.550482
F -1.677925 1.034880 0.318222
F -1.696634 -1.103343 0.027770
S 0.892195 -0.085109 0.366828
O 1.127787 -0.269229 1.817940
O 1.442191 -1.090596 -0.714707
O 1.577278 1.400170 -0.203638
H 1.522676 2.005888 0.493587
9
Time step 199
C -1.160365 -0.035618 -0.311321
F -0.966306 0.093189 -1.549824
F -1.678481 1.034727 0.317815
F -1.696678 -1.102972 0.027685
S 0.892775 -0.084438 0.366463
O 1.128197 -0.269742 1.818770
O 1.441183 -1.090501 -0.715004
O 1.577459 1.399106 -0.203774
H 1.521159 2.015802 0.500298
9
Time step 200
C -1.161036 -0.036249 -0.311679
F -0.965810 0.092982 -1.549179
F -1.679039 1.034573 0.317404
F -1.696730 -1.102618 0.027606
S 0.893359 -0.083775 0.366086
O 1.128606 -0.270252 1.819592
O 1.440166 -1.090390 -0.715279
O 1.577636 1.398027 -0.203916
H 1.519632 2.025863 0.507181
9
Time step 201
C -1.161677 -0.036853 -0.312016
F -0.965316 0.092778 -1.548546
F -1.679598 1.034418 0.316991
F -1.696791 -1.102280 0.027531
S 0.893947 -0.083121 0.365697
O 1.129012 -0.270758 1.820407
O 1.439139 -1.090263 -0.715533
O 1.577808 1.396937 -0.204060
H 1.518099 2.036024 0.514183
9
Time step 202
C -1.162288 -0.037430 -0.312329
F -0.964824 0.092577 -1.547928
F -1.680157 1.034262 0.316574
F -1.696859 -1.101959 0.027461
S 0.894538 -0.082476 0.365298
O 1.129416 -0.271261 1.821213
O 1.438103 -1.090120 -0.715766
O 1.577976 1.395838 -0.204203
H 1.516567 2.046240 0.521256
9
Time step 203
C -1.162869 -0.037980 -0.312619
F -0.964333 0.092380 -1.547323
F -1.680719 1.034104 0.316153
F -1.696937 -1.101655 0.027396
S 0.895132 -0.081840 0.364889
O 1.129819 -0.271760 1.822012
O 1.437058 -1.089960 -0.715978
O 1.578138 1.394734 -0.204343
H 1.515038 2.056469 0.528355
9
Time step 204
C -1.163417 -0.038503 -0.312884
F -0.963846 0.092187 -1.546734
F -1.681282 1.033945 0.315728
F -1.697024 -1.101366 0.027336
S 0.895731 -0.081213 0.364470
O 1.130219 -0.272255 1.822803
O 1.436004 -1.089783 -0.716170
O 1.578295 1.393625 -0.204477
H 1.513516 2.066676 0.535441
9
Time step 205
C -1.163931 -0.039001 -0.313123
F -0.963361 0.091997 -1.546158
F -1.681847 1.033784 0.315300
F -1.697120 -1.101094 0.027280
S 0.896332 -0.080595 0.364043
O 1.130618 -0.272746 1.823585
O 1.434941 -1.089589 -0.716342
O 1.578448 1.392514 -0.204605
H 1.512003 2.076827 0.542479
9
Time step 206
C -1.164413 -0.039472 -0.313335
F -0.962879 0.091811 -1.545597
F -1.682414 1.033621 0.314866
F -1.697226 -1.100836 0.027229
S 0.896938 -0.079987 0.363606
O 1.131015 -0.273234 1.824358
O 1.433869 -1.089378 -0.716494
O 1.578596 1.391403 -0.204723
H 1.510498 2.086894 0.549435
9
Time step 207
C -1.164863 -0.039919 -0.313520
F -0.962400 0.091629 -1.545049
F -1.682982 1.033455 0.314428
F -1.697342 -1.100594 0.027182
S 0.897547 -0.079388 0.363160
O 1.131409 -0.273718 1.825122
O 1.432790 -1.089148 -0.716626
O 1.578739 1.390294 -0.204831
H 1.509004 2.096846 0.556280
9
Time step 208
C -1.165283 -0.040338 -0.313680
F -0.961923 0.091450 -1.544515
F -1.683551 1.033286 0.313984
F -1.697466 -1.100368 0.027139
S 0.898159 -0.078799 0.362706
O 1.131800 -0.274198 1.825876
O 1.431702 -1.088901 -0.716738
O 1.578878 1.389188 -0.204925
H 1.507520 2.106658 0.562983
9
Time step 209
C -1.165673 -0.040728 -0.313813
F -0.961448 0.091274 -1.543993
F -1.684121 1.033115 0.313537
F -1.697600 -1.100157 0.027102
S 0.898775 -0.078219 0.362241
O 1.132189 -0.274675 1.826621
O 1.430606 -1.088637 -0.716829
O 1.579012 1.388089 -0.205005
H 1.506048 2.116303 0.569516
9
Time step 210
C -1.166033 -0.041086 -0.313922
F -0.960975 0.091100 -1.543485
F -1.684691 1.032942 0.313086
F -1.697744 -1.099963 0.027069
S 0.899393 -0.077649 0.361767
O 1.132574 -0.275148 1.827356
O 1.429503 -1.088356 -0.716899
O 1.579140 1.386998 -0.205068
H 1.504590 2.125756 0.575854
9
Time step 211
C -1.166358 -0.041411 -0.314005
F -0.960503 0.090928 -1.542992
F -1.685263 1.032766 0.312632
F -1.697899 -1.099787 0.027042
S 0.900015 -0.077088 0.361282
O 1.132957 -0.275619 1.828082
O 1.428392 -1.088059 -0.716949
O 1.579264 1.385916 -0.205113
H 1.503147 2.134995 0.581972
9
Time step 212
C -1.166645 -0.041701 -0.314062
F -0.960034 0.090758 -1.542515
F -1.685838 1.032588 0.312176
F -1.698066 -1.099631 0.027020
S 0.900640 -0.076535 0.360788
O 1.133337 -0.276086 1.828797
O 1.427274 -1.087747 -0.716979
O 1.579381 1.384846 -0.205137
H 1.501723 2.144000 0.587852
9
Time step 213
C -1.166893 -0.041956 -0.314091
F -0.959567 0.090589 -1.542055
F -1.686415 1.032408 0.311716
F -1.698246 -1.099494 0.027004
S 0.901268 -0.075992 0.360284
O 1.133714 -0.276550 1.829503
O 1.426150 -1.087420 -0.716990
O 1.579493 1.383786 -0.205140
H 1.500321 2.152755 0.593479
9
Time step 214
C -1.167103 -0.042179 -0.314091
F -0.959103 0.090423 -1.541611
F -1.686995 1.032228 0.311255
F -1.698440 -1.099378 0.026993
S 0.901899 -0.075455 0.359772
O 1.134088 -0.277011 1.830199
O 1.425019 -1.087078 -0.716981
O 1.579599 1.382738 -0.205122
H 1.498942 2.161247 0.598840
9
Time step 215
C -1.167275 -0.042372 -0.314064
F -0.958640 0.090260 -1.541184
F -1.687576 1.032048 0.310790
F -1.698645 -1.099281 0.026987
S 0.902533 -0.074927 0.359251
O 1.134460 -0.277468 1.830884
O 1.423881 -1.086721 -0.716955
O 1.579698 1.381701 -0.205083
H 1.497589 2.169465 0.603929
9
Time step 216
C -1.167414 -0.042538 -0.314009
F -0.958180 0.090101 -1.540774
F -1.688159 1.031867 0.310322
F -1.698861 -1.099202 0.026986
S 0.903170 -0.074406 0.358724
O 1.134829 -0.277922 1.831557
O 1.422736 -1.086349 -0.716910
O 1.579791 1.380676 -0.205022
H 1.496264 2.177398 0.608740
9
Time step 217
C -1.167522 -0.042678 -0.313929
F -0.957721 0.089946 -1.540378
F -1.688743 1.031686 0.309851
F -1.699087 -1.099141 0.026991
S 0.903809 -0.073892 0.358191
O 1.135195 -0.278372 1.832217
O 1.421586 -1.085962 -0.716847
O 1.579877 1.379662 -0.204940
H 1.494969 2.185038 0.613266
9
Time step 218
C -1.167601 -0.042794 -0.313824
F -0.957263 0.089796 -1.539998
F -1.689328 1.031504 0.309376
F -1.699322 -1.099097 0.027001
S 0.904450 -0.073385 0.357652
O 1.135558 -0.278818 1.832864
O 1.420429 -1.085558 -0.716766
O 1.579958 1.378660 -0.204835
H 1.493704 2.192374 0.617503
9
Time step 219
C -1.167647 -0.042884 -0.313696
F -0.956807 0.089650 -1.539633
F -1.689914 1.031321 0.308899
F -1.699567 -1.099070 0.027016
S 0.905094 -0.072887 0.357107
O 1.135919 -0.279260 1.833497
O 1.419266 -1.085139 -0.716667
O 1.580032 1.377671 -0.204709
H 1.492470 2.199397 0.621446
9
Time step 220
C -1.167660 -0.042946 -0.313545
F -0.956354 0.089507 -1.539283
F -1.690503 1.031136 0.308418
F -1.699823 -1.099060 0.027038
S 0.905740 -0.072398 0.356557
O 1.136277 -0.279697 1.834116
O 1.418097 -1.084703 -0.716549
O 1.580100 1.376696 -0.204559
H 1.491266 2.206096 0.625088
9
Time step 221
C -1.167636 -0.042978 -0.313369
F -0.955902 0.089368 -1.538949
F -1.691095 1.030951 0.307934
F -1.700089 -1.099068 0.027066
S 0.906388 -0.071918 0.356001
O 1.136633 -0.280130 1.834720
O 1.416923 -1.084252 -0.716412
O 1.580162 1.375735 -0.204387
H 1.490093 2.212462 0.628426
9
Time step 222
C -1.167574 -0.042979 -0.313166
F -0.955453 0.089232 -1.538631
F -1.691689 1.030765 0.307447
F -1.700367 -1.099096 0.027101
S 0.907038 -0.071447 0.355440
O 1.136986 -0.280558 1.835309
O 1.415743 -1.083784 -0.716257
O 1.580219 1.374791 -0.204191
H 1.488950 2.218488 0.631458
9
Time step 223
C -1.167475 -0.042948 -0.312936
F -0.955006 0.089099 -1.538331
F -1.692287 1.030578 0.306956
F -1.700655 -1.099142 0.027141
S 0.907688 -0.070985 0.354873
O 1.137338 -0.280983 1.835883
O 1.414556 -1.083302 -0.716084
O 1.580270 1.373863 -0.203972
H 1.487836 2.224168 0.634183
9
Time step 224
C -1.167341 -0.042884 -0.312678
F -0.954561 0.088969 -1.538048
F -1.692887 1.030389 0.306462
F -1.700954 -1.099206 0.027187
S 0.908340 -0.070533 0.354300
O 1.137688 -0.281403 1.836442
O 1.413364 -1.082804 -0.715891
O 1.580317 1.372953 -0.203729
H 1.486751 2.229499 0.636605
9
Time step 225
C -1.167175 -0.042789 -0.312391
F -0.954118 0.088841 -1.537782
F -1.693488 1.030199 0.305963
F -1.701261 -1.099289 0.027239
S 0.908992 -0.070089 0.353722
O 1.138036 -0.281820 1.836987
O 1.412165 -1.082291 -0.715679
O 1.580358 1.372061 -0.203464
H 1.485695 2.234478 0.638726
9
Time step 226
C -1.166979 -0.042663 -0.312075
F -0.953676 0.088716 -1.537533
F -1.694090 1.030007 0.305461
F -1.701577 -1.099390 0.027296
S 0.909646 -0.069654 0.353139
O 1.138382 -0.282233 1.837516
O 1.410961 -1.081763 -0.715448
O 1.580394 1.371187 -0.203177
H 1.484666 2.239104 0.640549
9
Time step 227
C -1.166752 -0.042506 -0.311731
F -0.953237 0.088594 -1.537300
F -1.694692 1.029813 0.304955
F -1.701902 -1.099507 0.027358
S 0.910300 -0.069230 0.352550
O 1.138726 -0.282642 1.838030
O 1.409750 -1.081219 -0.715197
O 1.580426 1.370332 -0.202869
H 1.483666 2.243378 0.642075
9
Time step 228
C -1.166495 -0.042317 -0.311360
F -0.952800 0.088475 -1.537084
F -1.695295 1.029617 0.304445
F -1.702236 -1.099643 0.027425
S 0.910956 -0.068816 0.351957
O 1.139067 -0.283046 1.838528
O 1.408532 -1.080660 -0.714927
O 1.580453 1.369495 -0.202538
H 1.482694 2.247298 0.643301
9
Time step 229
C -1.166206 -0.042098 -0.310961
F -0.952365 0.088360 -1.536885
F -1.695900 1.029418 0.303931
F -1.702580 -1.099796 0.027498
S 0.911614 -0.068412 0.351360
O 1.139405 -0.283445 1.839010
O 1.407309 -1.080084 -0.714638
O 1.580476 1.368678 -0.202186
H 1.481750 2.250861 0.644225
9
Time step 230
C -1.165882 -0.041849 -0.310534
F -0.951933 0.088249 -1.536701
F -1.696505 1.029219 0.303413
F -1.702935 -1.099968 0.027575
S 0.912273 -0.068020 0.350760
O 1.139741 -0.283838 1.839476
O 1.406079 -1.079492 -0.714331
O 1.580494 1.367880 -0.201811
H 1.480835 2.254065 0.644841
9
Time step 231
C -1.165523 -0.041572 -0.310080
F -0.951503 0.088141 -1.536534
F -1.697113 1.029018 0.302891
F -1.703300 -1.100157 0.027658
S 0.912933 -0.067639 0.350156
O 1.140074 -0.284225 1.839925
O 1.404843 -1.078883 -0.714006
O 1.580508 1.367101 -0.201415
H 1.479946 2.256906 0.645144
9
Time step 232
C -1.165130 -0.041268 -0.309599
F -0.951075 0.088037 -1.536382
F -1.697722 1.028816 0.302365
F -1.703676 -1.100363 0.027746
S 0.913595 -0.067269 0.349548
O 1.140405 -0.284606 1.840357
O 1.403602 -1.078258 -0.713663
O 1.580518 1.366341 -0.200996
H 1.479084 2.259379 0.645131
9
Time step 233
C -1.164703 -0.040939 -0.309091
F -0.950648 0.087936 -1.536246
F -1.698333 1.028613 0.301837
F -1.704062 -1.100586 0.027838
S 0.914256 -0.066907 0.348938
O 1.140732 -0.284982 1.840772
O 1.402356 -1.077618 -0.713304
O 1.580523 1.365600 -0.200555
H 1.478249 2.261483 0.644802
9
Time step 234
C -1.164243 -0.040583 -0.308557
F -0.950224 0.087838 -1.536127
F -1.698945 1.028410 0.301306
F -1.704457 -1.100825 0.027936
S 0.914918 -0.066555 0.348325
O 1.141057 -0.285354 1.841170
O 1.401106 -1.076964 -0.712928
O 1.580524 1.364879 -0.200091
H 1.477438 2.263215 0.644158
9
Time step 235
C -1.163749 -0.040202 -0.307996
F -0.949802 0.087744 -1.536024
F -1.699559 1.028206 0.300773
F -1.704862 -1.101080 0.028038
S 0.915580 -0.066212 0.347711
O 1.141380 -0.285722 1.841550
O 1.399851 -1.076297 -0.712536
O 1.580521 1.364178 -0.199606
H 1.476653 2.264573 0.643203
9
Time step 236
C -1.163222 -0.039792 -0.307411
F -0.949383 0.087651 -1.535937
F -1.700175 1.028002 0.300237
F -1.705277 -1.101351 0.028146
S 0.916242 -0.065876 0.347094
O 1.141699 -0.286086 1.841914
O 1.398594 -1.075616 -0.712128
O 1.580515 1.363496 -0.199100
H 1.475895 2.265558 0.641940
9
Time step 237
C -1.162660 -0.039353 -0.306799
F -0.948968 0.087562 -1.535867
F -1.700793 1.027797 0.299699
F -1.705702 -1.101641 0.028258
S 0.916905 -0.065550 0.346477
O 1.142015 -0.286446 1.842260
O 1.397334 -1.074922 -0.711705
O 1.580504 1.362835 -0.198574
H 1.475163 2.266171 0.640372
9
Time step 238
C -1.162063 -0.038884 -0.306162
F -0.948555 0.087475 -1.535813
F -1.701414 1.027593 0.299158
F -1.706138 -1.101949 0.028375
S 0.917568 -0.065232 0.345860
O 1.142329 -0.286800 1.842589
O 1.396071 -1.074215 -0.711267
O 1.580489 1.362193 -0.198027
H 1.474462 2.266411 0.638499
9
Time step 239
C -1.161431 -0.038386 -0.305499
F -0.948145 0.087391 -1.535776
F -1.702036 1.027388 0.298615
F -1.706585 -1.102274 0.028497
S 0.918231 -0.064924 0.345243
O 1.142639 -0.287150 1.842900
O 1.394806 -1.073495 -0.710816
O 1.580469 1.361571 -0.197459
H 1.473794 2.266280 0.636318
9
Time step 240
C -1.160767 -0.037862 -0.304810
F -0.947737 0.087311 -1.535753
F -1.702659 1.027182 0.298069
F -1.707041 -1.102617 0.028623
S 0.918894 -0.064625 0.344626
O 1.142946 -0.287494 1.843194
O 1.393538 -1.072763 -0.710352
O 1.580444 1.360969 -0.196872
H 1.473161 2.265774 0.633828
9
Time step 241
C -1.160070 -0.037315 -0.304096
F -0.947330 0.087233 -1.535746
F -1.703284 1.026977 0.297521
F -1.707507 -1.102974 0.028754
S 0.919556 -0.064335 0.344010
O 1.143250 -0.287832 1.843470
O 1.392268 -1.072017 -0.709876
O 1.580415 1.360388 -0.196265
H 1.472564 2.264894 0.631024
9
Time step 242
C -1.159343 -0.036748 -0.303357
F -0.946925 0.087160 -1.535754
F -1.703911 1.026772 0.296971
F -1.707981 -1.103346 0.028888
S 0.920218 -0.064054 0.343395
O 1.143550 -0.288165 1.843727
O 1.390994 -1.071259 -0.709387
O 1.580381 1.359827 -0.195637
H 1.472005 2.263635 0.627907
9
Time step 243
C -1.158585 -0.036163 -0.302595
F -0.946520 0.087089 -1.535776
F -1.704540 1.026567 0.296419
F -1.708463 -1.103729 0.029026
S 0.920879 -0.063782 0.342781
O 1.143847 -0.288493 1.843965
O 1.389718 -1.070488 -0.708885
O 1.580342 1.359287 -0.194989
H 1.471485 2.261997 0.624477
9
Time step 244
C -1.157796 -0.035558 -0.301808
F -0.946118 0.087021 -1.535813
F -1.705171 1.026362 0.295866
F -1.708953 -1.104125 0.029170
S 0.921540 -0.063519 0.342168
O 1.144140 -0.288816 1.844184
O 1.388439 -1.069705 -0.708370
O 1.580299 1.358768 -0.194320
H 1.471001 2.259978 0.620739
9
Time step 245
C -1.156975 -0.034931 -0.300999
F -0.945718 0.086957 -1.535866
F -1.705806 1.026157 0.295310
F -1.709451 -1.104535 0.029317
S 0.922201 -0.063264 0.341556
O 1.144429 -0.289134 1.844384
O 1.387157 -1.068910 -0.707840
O 1.580252 1.358271 -0.193632
H 1.470554 2.257577 0.616698
9
Time step 246
C -1.156121 -0.034282 -0.300167
F -0.945321 0.086895 -1.535933
F -1.706443 1.025953 0.294753
F -1.709955 -1.104959 0.029470
S 0.922861 -0.063020 0.340945
O 1.144715 -0.289448 1.844562
O 1.385873 -1.068103 -0.707297
O 1.580201 1.357796 -0.192923
H 1.470143 2.254798 0.612361
9
Time step 247
C -1.155235 -0.033607 -0.299310
F -0.944927 0.086835 -1.536015
F -1.707083 1.025749 0.294192
F -1.710467 -1.105397 0.029628
S 0.923520 -0.062785 0.340335
O 1.144998 -0.289756 1.844721
O 1.384586 -1.067284 -0.706738
O 1.580147 1.357342 -0.192194
H 1.469768 2.251644 0.607733
9
Time step 248
C -1.154319 -0.032907 -0.298430
F -0.944535 0.086778 -1.536111
F -1.707724 1.025545 0.293629
F -1.710985 -1.105851 0.029789
S 0.924178 -0.062560 0.339725
O 1.145278 -0.290059 1.844858
O 1.383296 -1.066453 -0.706166
O 1.580088 1.356910 -0.191445
H 1.469429 2.248117 0.602820
9
Time step 249
C -1.153376 -0.032185 -0.297526
F -0.944146 0.086724 -1.536222
F -1.708366 1.025341 0.293064
F -1.711508 -1.106318 0.029955
S 0.924834 -0.062344 0.339116
O 1.145555 -0.290355 1.844975
O 1.382003 -1.065610 -0.705579
O 1.580026 1.356498 -0.190676
H 1.469124 2.244224 0.597626
9
Time step 250
C -1.152408 -0.031443 -0.296597
F -0.943758 0.086673 -1.536347
F -1.709008 1.025138 0.292495
F -1.712037 -1.106798 0.030125
S 0.925487 -0.062139 0.338508
O 1.145830 -0.290646 1.845070
O 1.380708 -1.064756 -0.704979
O 1.579960 1.356108 -0.189887
H 1.468853 2.239969 0.592155
9
Time step 251
C -1.151416 -0.030685 -0.295644
F -0.943371 0.086625 -1.536487
F -1.709650 1.024934 0.291925
F -1.712572 -1.107289 0.030298
S 0.926139 -0.061942 0.337902
O 1.146103 -0.290931 1.845144
O 1.379411 -1.063891 -0.704364
O 1.579890 1.355738 -0.189078
H 1.468615 2.235355 0.586408
9
Time step 252
C -1.150398 -0.029913 -0.294667
F -0.942986 0.086580 -1.536640
F -1.710292 1.024731 0.291353
F -1.713113 -1.107789 0.030474
S 0.926789 -0.061753 0.337296
O 1.146374 -0.291211 1.845198
O 1.378111 -1.063015 -0.703736
O 1.579816 1.355389 -0.188250
H 1.468406 2.230387 0.580389
9
Time step 253
C -1.149352 -0.029126 -0.293667
F -0.942602 0.086538 -1.536808
F -1.710935 1.024528 0.290779
F -1.713660 -1.108301 0.030654
S 0.927438 -0.061574 0.336692
O 1.146642 -0.291485 1.845230
O 1.376809 -1.062129 -0.703096
O 1.579737 1.355059 -0.187403
H 1.468226 2.225067 0.574104
9
Time step 254
C -1.148276 -0.028322 -0.292644
F -0.942220 0.086499 -1.536989
F -1.711581 1.024326 0.290202
F -1.714213 -1.108823 0.030838
S 0.928086 -0.061402 0.336091
O 1.146907 -0.291754 1.845240
O 1.375505 -1.061233 -0.702442
O 1.579655 1.354750 -0.186539
H 1.468074 2.219400 0.567560
9
Time step 255
C -1.147167 -0.027499 -0.291599
F -0.941842 0.086463 -1.537183
F -1.712229 1.024125 0.289624
F -1.714774 -1.109357 0.031025
S 0.928732 -0.061239 0.335493
O 1.147170 -0.292018 1.845228
O 1.374200 -1.060326 -0.701777
O 1.579570 1.354460 -0.185657
H 1.467947 2.213391 0.560764
9
Time step 256
C -1.146024 -0.026655 -0.290532
F -0.941468 0.086429 -1.537390
F -1.712881 1.023924 0.289042
F -1.715342 -1.109903 0.031217
S 0.929375 -0.061085 0.334898
O 1.147429 -0.292277 1.845194
O 1.372894 -1.059411 -0.701100
O 1.579483 1.354190 -0.184759
H 1.467846 2.207048 0.553727
9
Time step 257
C -1.144846 -0.025790 -0.289444
F -0.941099 0.086397 -1.537609
F -1.713536 1.023723 0.288458
F -1.715915 -1.110461 0.031412
S 0.930016 -0.060940 0.334308
O 1.147685 -0.292530 1.845137
O 1.371589 -1.058486 -0.700412
O 1.579394 1.353939 -0.183846
H 1.467769 2.200379 0.546460
9
Time step 258
C -1.143638 -0.024905 -0.288335
F -0.940733 0.086366 -1.537840
F -1.714193 1.023523 0.287872
F -1.716494 -1.111031 0.031610
S 0.930653 -0.060804 0.333723
O 1.147938 -0.292778 1.845057
O 1.370283 -1.057552 -0.699715
O 1.579303 1.353707 -0.182919
H 1.467717 2.193396 0.538974
9
Time step 259
C -1.142400 -0.024005 -0.287207
F -0.940370 0.086338 -1.538082
F -1.714852 1.023324 0.287285
F -1.717078 -1.111610 0.031811
S 0.931286 -0.060676 0.333141
O 1.148187 -0.293021 1.844955
O 1.368979 -1.056610 -0.699007
O 1.579211 1.353494 -0.181978
H 1.467689 2.186110 0.531278
9
Time step 260
C -1.141136 -0.023093 -0.286058
F -0.940009 0.086312 -1.538336
F -1.715513 1.023127 0.286697
F -1.717667 -1.112198 0.032015
S 0.931915 -0.060557 0.332564
O 1.148434 -0.293258 1.844830
O 1.367676 -1.055659 -0.698289
O 1.579117 1.353298 -0.181024
H 1.467684 2.178536 0.523383
9
Time step 261
C -1.139848 -0.022174 -0.284890
F -0.939650 0.086290 -1.538602
F -1.716175 1.022932 0.286108
F -1.718259 -1.112792 0.032222
S 0.932541 -0.060445 0.331991
O 1.148677 -0.293491 1.844683
O 1.366374 -1.054701 -0.697561
O 1.579022 1.353119 -0.180058
H 1.467702 2.170687 0.515300
9
Time step 262
C -1.138536 -0.021250 -0.283704
F -0.939293 0.086271 -1.538878
F -1.716838 1.022739 0.285518
F -1.718856 -1.113394 0.032432
S 0.933163 -0.060342 0.331422
O 1.148917 -0.293717 1.844516
O 1.365073 -1.053734 -0.696824
O 1.578924 1.352956 -0.179081
H 1.467741 2.162581 0.507042
9
Time step 263
C -1.137201 -0.020322 -0.282501
F -0.938938 0.086256 -1.539165
F -1.717503 1.022549 0.284928
F -1.719457 -1.114002 0.032645
S 0.933782 -0.060247 0.330857
O 1.149155 -0.293939 1.844329
O 1.363772 -1.052759 -0.696077
O 1.578824 1.352808 -0.178093
H 1.467803 2.154234 0.498627
9
Time step 264
C -1.135840 -0.019388 -0.281283
F -0.938584 0.086244 -1.539462
F -1.718170 1.022362 0.284338
F -1.720061 -1.114617 0.032860
S 0.934399 -0.060160 0.330296
O 1.149390 -0.294154 1.844121
O 1.362472 -1.051777 -0.695320
O 1.578722 1.352673 -0.177098
H 1.467884 2.145667 0.490073
9
Time step 265
C -1.134452 -0.018446 -0.280051
F -0.938233 0.086235 -1.539768
F -1.718839 1.022177 0.283747
F -1.720669 -1.115239 0.033078
S 0.935012 -0.060082 0.329740
O 1.149623 -0.294362 1.843894
O 1.361171 -1.050786 -0.694555
O 1.578617 1.352551 -0.176095
H 1.467982 2.136903 0.481406
9
Time step 266
C -1.133038 -0.017495 -0.278806
F -0.937885 0.086229 -1.540082
F -1.719510 1.021993 0.283156
F -1.721280 -1.115868 0.033297
S 0.935622 -0.060014 0.329189
O 1.149853 -0.294564 1.843646
O 1.359870 -1.049789 -0.693783
O 1.578511 1.352438 -0.175086
H 1.468093 2.127969 0.472652
9
Time step 267
C -1.131596 -0.016532 -0.277548
F -0.937541 0.086225 -1.540405
F -1.720184 1.021811 0.282565
F -1.721895 -1.116504 0.033519
S 0.936228 -0.059954 0.328643
O 1.150080 -0.294758 1.843377
O 1.358570 -1.048784 -0.693002
O 1.578404 1.352335 -0.174074
H 1.468210 2.118899 0.463841
9
Time step 268
C -1.130128 -0.015559 -0.276274
F -0.937200 0.086222 -1.540737
F -1.720859 1.021631 0.281973
F -1.722513 -1.117146 0.033742
S 0.936830 -0.059903 0.328104
O 1.150305 -0.294946 1.843087
O 1.357272 -1.047773 -0.692216
O 1.578297 1.352237 -0.173060
H 1.468327 2.109726 0.455004
9
Time step 269
C -1.128636 -0.014576 -0.274983
F -0.936862 0.086221 -1.541080
F -1.721537 1.021452 0.281381
F -1.723134 -1.117794 0.033967
S 0.937428 -0.059862 0.327572
O 1.150527 -0.295126 1.842775
O 1.355976 -1.046755 -0.691422
O 1.578191 1.352144 -0.172046
H 1.468436 2.100492 0.446174
9
Time step 270
C -1.127121 -0.013585 -0.273672
F -0.936527 0.086222 -1.541433
F -1.722217 1.021275 0.280787
F -1.723757 -1.118447 0.034194
S 0.938021 -0.059829 0.327046
O 1.150746 -0.295299 1.842441
O 1.354682 -1.045731 -0.690623
O 1.578086 1.352053 -0.171034
H 1.468529 2.091240 0.437383
9
Time step 271
C -1.125587 -0.012587 -0.272341
F -0.936194 0.086224 -1.541796
F -1.722897 1.021099 0.280192
F -1.724381 -1.119105 0.034422
S 0.938610 -0.059804 0.326527
O 1.150963 -0.295466 1.842085
O 1.353391 -1.044702 -0.689819
O 1.577983 1.351961 -0.170027
H 1.468602 2.082019 0.428668
9
Time step 272
C -1.124034 -0.011585 -0.270991
F -0.935862 0.086230 -1.542169
F -1.723578 1.020925 0.279596
F -1.725006 -1.119765 0.034652
S 0.939193 -0.059787 0.326014
O 1.151177 -0.295627 1.841706
O 1.352102 -1.043669 -0.689009
O 1.577880 1.351865 -0.169027
H 1.468649 2.072880 0.420069
9
Time step 273
C -1.122462 -0.010578 -0.269624
F -0.935532 0.086237 -1.542551
F -1.724260 1.020752 0.278998
F -1.725630 -1.120429 0.034883
S 0.939772 -0.059779 0.325509
O 1.151388 -0.295782 1.841305
O 1.350816 -1.042632 -0.688195
O 1.577780 1.351761 -0.168036
H 1.468664 2.063880 0.411629
9
Time step 274
C -1.120873 -0.009567 -0.268243
F -0.935204 0.086248 -1.542939
F -1.724943 1.020581 0.278399
F -1.726254 -1.121096 0.035117
S 0.940344 -0.059778 0.325012
O 1.151596 -0.295930 1.840881
O 1.349533 -1.041591 -0.687376
O 1.577680 1.351645 -0.167059
H 1.468642 2.055080 0.403396
9
Time step 275
C -1.119262 -0.008554 -0.266851
F -0.934878 0.086261 -1.543333
F -1.725628 1.020412 0.277800
F -1.726879 -1.121766 0.035353
S 0.940912 -0.059784 0.324523
O 1.151801 -0.296072 1.840434
O 1.348254 -1.040547 -0.686555
O 1.577583 1.351514 -0.166097
H 1.468576 2.046543 0.395421
9
Time step 276
C -1.117631 -0.007537 -0.265451
F -0.934554 0.086276 -1.543732
F -1.726314 1.020246 0.277200
F -1.727504 -1.122438 0.035591
S 0.941475 -0.059797 0.324042
O 1.152002 -0.296207 1.839964
O 1.346979 -1.039501 -0.685730
O 1.577489 1.351362 -0.165155
H 1.468456 2.038335 0.387757
9
Time step 277
C -1.115976 -0.006520 -0.264042
F -0.934233 0.086295 -1.544137
F -1.727003 1.020083 0.276601
F -1.728130 -1.123114 0.035832
S 0.942033 -0.059818 0.323572
O 1.152199 -0.296336 1.839468
O 1.345708 -1.038452 -0.684903
O 1.577398 1.351186 -0.164237
H 1.468270 2.030523 0.380458
9
Time step 278
C -1.114298 -0.005503 -0.262625
F -0.933916 0.086317 -1.544548
F -1.727694 1.019924 0.276002
F -1.728757 -1.123793 0.036075
S 0.942586 -0.059845 0.323110
O 1.152393 -0.296458 1.838948
O 1.344443 -1.037400 -0.684073
O 1.577312 1.350980 -0.163344
H 1.468003 2.023173 0.373579
9
Time step 279
C -1.112598 -0.004488 -0.261199
F -0.933602 0.086341 -1.544965
F -1.728387 1.019770 0.275403
F -1.729384 -1.124475 0.036321
S 0.943133 -0.059879 0.322659
O 1.152582 -0.296573 1.838403
O 1.343181 -1.036347 -0.683240
O 1.577231 1.350742 -0.162481
H 1.467642 2.016354 0.367173
9
Time step 280
C -1.110878 -0.003477 -0.259762
F -0.933290 0.086368 -1.545389
F -1.729082 1.019622 0.274805
F -1.730010 -1.125159 0.036569
S 0.943676 -0.059920 0.322218
O 1.152767 -0.296683 1.837832
O 1.341924 -1.035292 -0.682405
O 1.577156 1.350468 -0.161651
H 1.467170 2.010131 0.361291
9
Time step 281
C -1.109141 -0.002471 -0.258315
F -0.932980 0.086397 -1.545820
F -1.729778 1.019478 0.274207
F -1.730634 -1.125843 0.036819
S 0.944213 -0.059966 0.321786
O 1.152948 -0.296787 1.837236
O 1.340670 -1.034236 -0.681568
O 1.577089 1.350154 -0.160856
H 1.466575 2.004569 0.355983
9
Time step 282
C -1.107387 -0.001472 -0.256856
F -0.932672 0.086428 -1.546255
F -1.730475 1.019338 0.273610
F -1.731256 -1.126527 0.037069
S 0.944745 -0.060018 0.321364
O 1.153127 -0.296884 1.836616
O 1.339420 -1.033181 -0.680728
O 1.577029 1.349798 -0.160100
H 1.465846 1.999730 0.351297
9
Time step 283
C -1.105617 -0.000478 -0.255389
F -0.932366 0.086461 -1.546696
F -1.731172 1.019201 0.273012
F -1.731876 -1.127210 0.037321
S 0.945271 -0.060076 0.320951
O 1.153302 -0.296976 1.835972
O 1.338173 -1.032126 -0.679887
O 1.576978 1.349395 -0.159384
H 1.464972 1.995673 0.347276
9
Time step 284
C -1.103831 0.000513 -0.253915
F -0.932063 0.086496 -1.547139
F -1.731870 1.019067 0.272414
F -1.732495 -1.127892 0.037573
S 0.945791 -0.060140 0.320547
O 1.153475 -0.297062 1.835305
O 1.336929 -1.031073 -0.679044
O 1.576936 1.348942 -0.158712
H 1.463946 1.992448 0.343957
9
Time step 285
C -1.102026 0.001500 -0.252435
F -0.931762 0.086533 -1.547585
F -1.732570 1.018936 0.271816
F -1.733112 -1.128573 0.037826
S 0.946306 -0.060209 0.320152
O 1.153646 -0.297143 1.834615
O 1.335690 -1.030022 -0.678201
O 1.576904 1.348439 -0.158085
H 1.462760 1.990098 0.341372
9
Time step 286
C -1.100201 0.002487 -0.250951
F -0.931465 0.086571 -1.548033
F -1.733272 1.018807 0.271218
F -1.733728 -1.129253 0.038081
S 0.946814 -0.060284 0.319768
O 1.153814 -0.297217 1.833902
O 1.334456 -1.028972 -0.677357
O 1.576883 1.347881 -0.157506
H 1.461409 1.988653 0.339542
9
Time step 287
C -1.098356 0.003473 -0.249463
F -0.931170 0.086611 -1.548484
F -1.733977 1.018680 0.270620
F -1.734344 -1.129934 0.038337
S 0.947317 -0.060365 0.319394
O 1.153979 -0.297285 1.833168
O 1.333227 -1.027924 -0.676514
O 1.576872 1.347268 -0.156975
H 1.459889 1.988130 0.338478
9
Time step 288
C -1.096492 0.004458 -0.247971
F -0.930878 0.086652 -1.548937
F -1.734684 1.018556 0.270022
F -1.734958 -1.130615 0.038595
S 0.947812 -0.060452 0.319030
O 1.154143 -0.297348 1.832412
O 1.332003 -1.026878 -0.675672
O 1.576873 1.346600 -0.156492
H 1.458194 1.988534 0.338182
9
Time step 289
C -1.094611 0.005441 -0.246475
F -0.930589 0.086695 -1.549393
F -1.735393 1.018435 0.269426
F -1.735569 -1.131295 0.038854
S 0.948299 -0.060546 0.318677
O 1.154304 -0.297404 1.831635
O 1.330786 -1.025834 -0.674832
O 1.576886 1.345878 -0.156058
H 1.456322 1.989856 0.338645
9
Time step 290
C -1.092716 0.006418 -0.244975
F -0.930301 0.086740 -1.549852
F -1.736103 1.018317 0.268830
F -1.736176 -1.131972 0.039115
S 0.948780 -0.060645 0.318334
O 1.154462 -0.297454 1.830836
O 1.329574 -1.024792 -0.673994
O 1.576910 1.345102 -0.155671
H 1.454271 1.992076 0.339852
9
Time step 291
C -1.090810 0.007388 -0.243471
F -0.930016 0.086787 -1.550314
F -1.736813 1.018203 0.268235
F -1.736779 -1.132646 0.039377
S 0.949252 -0.060749 0.318003
O 1.154618 -0.297497 1.830016
O 1.328369 -1.023755 -0.673159
O 1.576946 1.344275 -0.155329
H 1.452041 1.995164 0.341777
9
Time step 292
C -1.088893 0.008346 -0.241965
F -0.929733 0.086836 -1.550778
F -1.737524 1.018092 0.267641
F -1.737377 -1.133315 0.039640
S 0.949718 -0.060859 0.317683
O 1.154770 -0.297533 1.829174
O 1.327170 -1.022722 -0.672328
O 1.576993 1.343400 -0.155030
H 1.449637 1.999085 0.344389
9
Time step 293
C -1.086966 0.009293 -0.240457
F -0.929452 0.086886 -1.551243
F -1.738235 1.017985 0.267049
F -1.737970 -1.133979 0.039904
S 0.950177 -0.060973 0.317375
O 1.154920 -0.297563 1.828309
O 1.325977 -1.021694 -0.671500
O 1.577051 1.342479 -0.154772
H 1.447065 2.003797 0.347651
9
Time step 294
C -1.085027 0.010228 -0.238950
F -0.929175 0.086939 -1.551709
F -1.738947 1.017881 0.266457
F -1.738558 -1.134637 0.040169
S 0.950629 -0.061091 0.317080
O 1.155067 -0.297587 1.827422
O 1.324792 -1.020672 -0.670677
O 1.577119 1.341515 -0.154551
H 1.444333 2.009253 0.351520
9
Time step 295
C -1.083078 0.011154 -0.237443
F -0.928900 0.086995 -1.552175
F -1.739660 1.017781 0.265866
F -1.739143 -1.135292 0.040436
S 0.951074 -0.061214 0.316799
O 1.155210 -0.297605 1.826511
O 1.323615 -1.019656 -0.669859
O 1.577196 1.340511 -0.154367
H 1.441453 2.015399 0.355951
9
Time step 296
C -1.081116 0.012071 -0.235936
F -0.928627 0.087052 -1.552641
F -1.740375 1.017685 0.265277
F -1.739722 -1.135943 0.040703
S 0.951511 -0.061340 0.316531
O 1.155350 -0.297617 1.825578
O 1.322446 -1.018647 -0.669047
O 1.577283 1.339471 -0.154216
H 1.438438 2.022174 0.360895
9
Time step 297
C -1.079141 0.012980 -0.234430
F -0.928357 0.087112 -1.553107
F -1.741091 1.017593 0.264689
F -1.740298 -1.136592 0.040971
S 0.951940 -0.061469 0.316278
O 1.155488 -0.297624 1.824622
O 1.321285 -1.017646 -0.668242
O 1.577377 1.338398 -0.154097
H 1.435303 2.029512 0.366302
9
Time step 298
C -1.077154 0.013881 -0.232922
F -0.928090 0.087173 -1.553573
F -1.741807 1.017504 0.264101
F -1.740869 -1.137237 0.041239
S 0.952360 -0.061600 0.316039
O 1.155622 -0.297625 1.823646
O 1.320134 -1.016652 -0.667445
O 1.577479 1.337298 -0.154005
H 1.432060 2.037342 0.372120
9
Time step 299
C -1.075154 0.014774 -0.231411
F -0.927824 0.087236 -1.554039
F -1.742526 1.017420 0.263515
F -1.741435 -1.137879 0.041507
S 0.952771 -0.061734 0.315814
O 1.155755 -0.297620 1.822648
O 1.318992 -1.015666 -0.666657
O 1.577588 1.336174 -0.153937
H 1.428723 2.045588 0.378296
9
Time step 300
C -1.073141 0.015655 -0.229897
F -0.927560 0.087301 -1.554506
F -1.743245 1.017340 0.262930
F -1.741996 -1.138518 0.041776
S 0.953172 -0.061871 0.315605
O 1.155884 -0.297608 1.821630
O 1.317858 -1.014690 -0.665879
O 1.577704 1.335031 -0.153891
H 1.425304 2.054176 0.384781
9
Time step 301
C -1.071116 0.016524 -0.228379
F -0.927299 0.087368 -1.554974
F -1.743965 1.017264 0.262345
F -1.742553 -1.139151 0.042044
S 0.953564 -0.062008 0.315409
O 1.156011 -0.297591 1.820591
O 1.316735 -1.013723 -0.665110
O 1.577825 1.333875 -0.153863
H 1.421815 2.063033 0.391524
9
Time step 302
C -1.069082 0.017380 -0.226859
F -0.927041 0.087438 -1.555442
F -1.744686 1.017192 0.261761
F -1.743104 -1.139780 0.042312
S 0.953946 -0.062148 0.315228
O 1.156135 -0.297567 1.819531
O 1.315621 -1.012766 -0.664352
O 1.577952 1.332710 -0.153849
H 1.418268 2.072091 0.398479
9
Time step 303
C -1.067040 0.018223 -0.225339
F -0.926784 0.087511 -1.555909
F -1.745408 1.017125 0.261178
F -1.743650 -1.140404 0.042582
S 0.954319 -0.062290 0.315062
O 1.156256 -0.297536 1.818450
O 1.314516 -1.011821 -0.663603
O 1.578084 1.331540 -0.153846
H 1.414674 2.081291 0.405602
9
Time step 304
C -1.064994 0.019053 -0.223822
F -0.926528 0.087586 -1.556374
F -1.746130 1.017062 0.260596
F -1.744188 -1.141025 0.042853
S 0.954684 -0.062433 0.314911
O 1.156374 -0.297499 1.817348
O 1.313421 -1.010887 -0.662866
O 1.578220 1.330369 -0.153852
H 1.411047 2.090578 0.412850
9
Time step 305
C -1.062945 0.019870 -0.222310
F -0.926272 0.087664 -1.556836
F -1.746853 1.017004 0.260015
F -1.744719 -1.141640 0.043126
S 0.955039 -0.062578 0.314775
O 1.156489 -0.297456 1.816224
O 1.312335 -1.009965 -0.662138
O 1.578359 1.329200 -0.153865
H 1.407399 2.099902 0.420185
9
Time step 306
C -1.060892 0.020674 -0.220804
F -0.926017 0.087745 -1.557295
F -1.747576 1.016951 0.259436
F -1.745243 -1.142251 0.043400
S 0.955385 -0.062724 0.314655
O 1.156600 -0.297406 1.815079
O 1.311259 -1.009054 -0.661422
O 1.578500 1.328036 -0.153882
H 1.403742 2.109218 0.427569
9
Time step 307
C -1.058834 0.021463 -0.219306
F -0.925762 0.087828 -1.557751
F -1.748299 1.016902 0.258859
F -1.745759 -1.142857 0.043676
S 0.955721 -0.062871 0.314550
O 1.156708 -0.297350 1.813911
O 1.310192 -1.008157 -0.660718
O 1.578642 1.326879 -0.153901
H 1.400087 2.118484 0.434965
9
Time step 308
C -1.056768 0.022236 -0.217814
F -0.925508 0.087914 -1.558202
F -1.749024 1.016858 0.258284
F -1.746269 -1.143456 0.043953
S 0.956048 -0.063019 0.314460
O 1.156813 -0.297287 1.812723
O 1.309135 -1.007272 -0.660027
O 1.578784 1.325731 -0.153920
H 1.396446 2.127656 0.442338
9
Time step 309
C -1.054692 0.022990 -0.216328
F -0.925256 0.088002 -1.558649
F -1.749749 1.016818 0.257710
F -1.746773 -1.144047 0.044230
S 0.956365 -0.063167 0.314388
O 1.156916 -0.297218 1.811514
O 1.308090 -1.006401 -0.659349
O 1.578925 1.324596 -0.153936
H 1.392826 2.136694 0.449655
9
Time step 310
C -1.052603 0.023727 -0.214848
F -0.925007 0.088093 -1.559092
F -1.750475 1.016782 0.257137
F -1.747271 -1.144629 0.044508
S 0.956672 -0.063315 0.314331
O 1.157015 -0.297143 1.810284
O 1.307056 -1.005543 -0.658685
O 1.579064 1.323475 -0.153947
H 1.389237 2.145559 0.456886
9
Time step 311
C -1.050506 0.024446 -0.213373
F -0.924761 0.088185 -1.559530
F -1.751201 1.016750 0.256566
F -1.747763 -1.145203 0.044785
S 0.956970 -0.063463 0.314292
O 1.157112 -0.297062 1.809035
O 1.306034 -1.004700 -0.658037
O 1.579199 1.322370 -0.153953
H 1.385686 2.154214 0.464004
9
Time step 312
C -1.048403 0.025149 -0.211905
F -0.924518 0.088279 -1.559964
F -1.751927 1.016722 0.255995
F -1.748248 -1.145768 0.045063
S 0.957257 -0.063610 0.314271
O 1.157206 -0.296975 1.807765
O 1.305025 -1.003872 -0.657404
O 1.579332 1.321285 -0.153952
H 1.382179 2.162626 0.470987
9
Time step 313
C -1.046301 0.025838 -0.210444
F -0.924276 0.088373 -1.560393
F -1.752652 1.016697 0.255427
F -1.748723 -1.146324 0.045342
S 0.957535 -0.063756 0.314267
O 1.157296 -0.296883 1.806476
O 1.304028 -1.003059 -0.656787
O 1.579462 1.320221 -0.153943
H 1.378722 2.170770 0.477817
9
Time step 314
C -1.044201 0.026513 -0.208993
F -0.924035 0.088469 -1.560817
F -1.753375 1.016676 0.254860
F -1.749190 -1.146872 0.045621
S 0.957802 -0.063902 0.314281
O 1.157383 -0.296786 1.805168
O 1.303045 -1.002262 -0.656187
O 1.579589 1.319180 -0.153926
H 1.375322 2.178625 0.484479
9
Time step 315
C -1.042106 0.027176 -0.207551
F -0.923794 0.088565 -1.561237
F -1.754095 1.016659 0.254295
F -1.749647 -1.147413 0.045903
S 0.958060 -0.064047 0.314312
O 1.157467 -0.296685 1.803840
O 1.302074 -1.001481 -0.655603
O 1.579712 1.318163 -0.153900
H 1.371982 2.186176 0.490965
9
Time step 316
C -1.040012 0.027826 -0.206118
F -0.923553 0.088663 -1.561653
F -1.754815 1.016644 0.253732
F -1.750096 -1.147945 0.046185
S 0.958307 -0.064191 0.314361
O 1.157548 -0.296578 1.802494
O 1.301115 -1.000718 -0.655036
O 1.579833 1.317171 -0.153864
H 1.368706 2.193412 0.497267
9
Time step 317
C -1.037917 0.028462 -0.204694
F -0.923313 0.088763 -1.562065
F -1.755534 1.016632 0.253171
F -1.750536 -1.148470 0.046470
S 0.958545 -0.064334 0.314427
O 1.157626 -0.296467 1.801129
O 1.300169 -0.999972 -0.654485
O 1.579950 1.316206 -0.153818
H 1.365497 2.200324 0.503377
9
Time step 318
C -1.035817 0.029083 -0.203279
F -0.923075 0.088864 -1.562472
F -1.756253 1.016624 0.252612
F -1.750970 -1.148987 0.046755
S 0.958772 -0.064475 0.314511
O 1.157700 -0.296351 1.799746
O 1.299234 -0.999245 -0.653952
O 1.580065 1.315269 -0.153761
H 1.362357 2.206904 0.509290
9
Time step 319
C -1.033711 0.029689 -0.201872
F -0.922839 0.088968 -1.562874
F -1.756974 1.016618 0.252055
F -1.751396 -1.149495 0.047041
S 0.958990 -0.064615 0.314612
O 1.157771 -0.296230 1.798345
O 1.298311 -0.998537 -0.653436
O 1.580176 1.314358 -0.153694
H 1.359288 2.213144 0.514999
9
Time step 320
C -1.031599 0.030279 -0.200473
F -0.922605 0.089074 -1.563271
F -1.757695 1.016615 0.251499
F -1.751813 -1.149995 0.047328
S 0.959196 -0.064753 0.314730
O 1.157840 -0.296103 1.796928
O 1.297399 -0.997848 -0.652938
O 1.580284 1.313475 -0.153616
H 1.356290 2.219035 0.520497
9
Time step 321
C -1.029486 0.030853 -0.199084
F -0.922372 0.089182 -1.563662
F -1.758416 1.016615 0.250946
F -1.752220 -1.150487 0.047614
S 0.959392 -0.064888 0.314867
O 1.157906 -0.295971 1.795496
O 1.296498 -0.997179 -0.652459
O 1.580390 1.312619 -0.153528
H 1.353366 2.224568 0.525779
9
Time step 322
C -1.027374 0.031412 -0.197706
F -0.922140 0.089291 -1.564047
F -1.759136 1.016619 0.250394
F -1.752617 -1.150969 0.047900
S 0.959577 -0.065020 0.315021
O 1.157970 -0.295834 1.794048
O 1.295609 -0.996530 -0.652000
O 1.580492 1.311792 -0.153428
H 1.350517 2.229734 0.530840
9
Time step 323
C -1.025267 0.031953 -0.196339
F -0.921909 0.089403 -1.564426
F -1.759855 1.016626 0.249844
F -1.753002 -1.151443 0.048186
S 0.959751 -0.065149 0.315194
O 1.158032 -0.295692 1.792585
O 1.294731 -0.995901 -0.651560
O 1.580592 1.310993 -0.153318
H 1.347742 2.234527 0.535678
9
Time step 324
C -1.023163 0.032475 -0.194983
F -0.921680 0.089516 -1.564798
F -1.760572 1.016637 0.249295
F -1.753376 -1.151907 0.048472
S 0.959913 -0.065274 0.315385
O 1.158092 -0.295546 1.791107
O 1.293864 -0.995292 -0.651140
O 1.580689 1.310222 -0.153196
H 1.345043 2.238943 0.540293
9
Time step 325
C -1.021062 0.032979 -0.193638
F -0.921452 0.089632 -1.565163
F -1.761289 1.016651 0.248748
F -1.753740 -1.152362 0.048759
S 0.960065 -0.065396 0.315593
O 1.158150 -0.295395 1.789615
O 1.293010 -0.994704 -0.650740
O 1.580784 1.309481 -0.153063
H 1.342420 2.242978 0.544682
9
Time step 326
C -1.018962 0.033464 -0.192305
F -0.921226 0.089750 -1.565523
F -1.762004 1.016668 0.248202
F -1.754096 -1.152808 0.049047
S 0.960205 -0.065515 0.315820
O 1.158206 -0.295239 1.788108
O 1.292169 -0.994136 -0.650361
O 1.580877 1.308768 -0.152917
H 1.339874 2.246632 0.548844
9
Time step 327
C -1.016863 0.033931 -0.190984
F -0.921002 0.089871 -1.565876
F -1.762718 1.016689 0.247657
F -1.754443 -1.153245 0.049336
S 0.960335 -0.065630 0.316065
O 1.158260 -0.295078 1.786585
O 1.291342 -0.993589 -0.650003
O 1.580966 1.308084 -0.152758
H 1.337406 2.249906 0.552778
9
Time step 328
C -1.014767 0.034382 -0.189677
F -0.920779 0.089994 -1.566222
F -1.763431 1.016714 0.247114
F -1.754782 -1.153675 0.049627
S 0.960454 -0.065742 0.316329
O 1.158312 -0.294910 1.785048
O 1.290529 -0.993065 -0.649667
O 1.581053 1.307430 -0.152587
H 1.335019 2.252799 0.556478
9
Time step 329
C -1.012678 0.034817 -0.188383
F -0.920555 0.090119 -1.566560
F -1.764142 1.016743 0.246574
F -1.755111 -1.154098 0.049919
S 0.960561 -0.065850 0.316610
O 1.158361 -0.294737 1.783495
O 1.289730 -0.992563 -0.649353
O 1.581136 1.306806 -0.152401
H 1.332715 2.255311 0.559940
9
Time step 330
C -1.010598 0.035238 -0.187105
F -0.920331 0.090245 -1.566891
F -1.764850 1.016776 0.246036
F -1.755430 -1.154512 0.050212
S 0.960657 -0.065955 0.316909
O 1.158406 -0.294558 1.781929
O 1.288947 -0.992085 -0.649062
O 1.581215 1.306212 -0.152203
H 1.330498 2.257438 0.563158
9
Time step 331
C -1.008531 0.035644 -0.185841
F -0.920106 0.090374 -1.567212
F -1.765554 1.016811 0.245502
F -1.755736 -1.154917 0.050506
S 0.960740 -0.066056 0.317226
O 1.158449 -0.294374 1.780348
O 1.288178 -0.991632 -0.648795
O 1.581290 1.305650 -0.151991
H 1.328371 2.259177 0.566125
9
Time step 332
C -1.006476 0.036032 -0.184590
F -0.919880 0.090504 -1.567524
F -1.766255 1.016849 0.244969
F -1.756031 -1.155312 0.050800
S 0.960813 -0.066153 0.317561
O 1.158489 -0.294186 1.778756
O 1.287425 -0.991203 -0.648550
O 1.581360 1.305120 -0.151767
H 1.326337 2.260524 0.568835
9
Time step 333
C -1.004433 0.036401 -0.183354
F -0.919654 0.090637 -1.567825
F -1.766952 1.016887 0.244436
F -1.756314 -1.155694 0.051094
S 0.960873 -0.066245 0.317914
O 1.158525 -0.293996 1.777151
O 1.286686 -0.990799 -0.648329
O 1.581426 1.304622 -0.151531
H 1.324399 2.261473 0.571284
9
Time step 334
C -1.002400 0.036750 -0.182130
F -0.919429 0.090773 -1.568117
F -1.767646 1.016927 0.243905
F -1.756585 -1.156064 0.051389
S 0.960922 -0.066332 0.318284
O 1.158559 -0.293802 1.775535
O 1.285962 -0.990419 -0.648131
O 1.581488 1.304157 -0.151281
H 1.322559 2.262021 0.573467
9
Time step 335
C -1.000377 0.037080 -0.180920
F -0.919205 0.090911 -1.568398
F -1.768337 1.016968 0.243374
F -1.756844 -1.156421 0.051684
S 0.960959 -0.066414 0.318672
O 1.158590 -0.293606 1.773909
O 1.285254 -0.990062 -0.647956
O 1.581546 1.303725 -0.151019
H 1.320819 2.262164 0.575381
9
Time step 336
C -0.998364 0.037392 -0.179725
F -0.918981 0.091050 -1.568669
F -1.769025 1.017012 0.242844
F -1.757092 -1.156768 0.051981
S 0.960984 -0.066492 0.319077
O 1.158618 -0.293408 1.772272
O 1.284561 -0.989729 -0.647803
O 1.581599 1.303326 -0.150744
H 1.319181 2.261903 0.577024
9
Time step 337
C -0.996362 0.037687 -0.178548
F -0.918757 0.091191 -1.568931
F -1.769711 1.017058 0.242316
F -1.757328 -1.157104 0.052279
S 0.960997 -0.066566 0.319499
O 1.158644 -0.293207 1.770625
O 1.283882 -0.989417 -0.647675
O 1.581649 1.302958 -0.150456
H 1.317645 2.261236 0.578393
9
Time step 338
C -0.994373 0.037968 -0.177388
F -0.918532 0.091333 -1.569184
F -1.770393 1.017108 0.241791
F -1.757553 -1.157432 0.052578
S 0.960999 -0.066635 0.319938
O 1.158667 -0.293003 1.768969
O 1.283219 -0.989128 -0.647569
O 1.581694 1.302622 -0.150153
H 1.316214 2.260165 0.579488
9
Time step 339
C -0.992396 0.038234 -0.176248
F -0.918305 0.091475 -1.569428
F -1.771073 1.017160 0.241270
F -1.757766 -1.157751 0.052879
S 0.960989 -0.066700 0.320393
O 1.158688 -0.292795 1.767303
O 1.282570 -0.988861 -0.647487
O 1.581735 1.302317 -0.149836
H 1.314886 2.258691 0.580309
9
Time step 340
C -0.990431 0.038484 -0.175126
F -0.918078 0.091619 -1.569662
F -1.771751 1.017216 0.240752
F -1.757968 -1.158059 0.053181
S 0.960968 -0.066760 0.320864
O 1.158707 -0.292584 1.765630
O 1.281935 -0.988617 -0.647428
O 1.581771 1.302043 -0.149503
H 1.313664 2.256814 0.580856
9
Time step 341
C -0.988478 0.038716 -0.174021
F -0.917851 0.091764 -1.569887
F -1.772425 1.017273 0.240236
F -1.758159 -1.158356 0.053484
S 0.960936 -0.066815 0.321349
O 1.158724 -0.292369 1.763949
O 1.281314 -0.988395 -0.647392
O 1.581801 1.301799 -0.149156
H 1.312548 2.254535 0.581132
9
Time step 342
C -0.986537 0.038928 -0.172934
F -0.917623 0.091912 -1.570101
F -1.773095 1.017331 0.239722
F -1.758339 -1.158642 0.053789
S 0.960892 -0.066865 0.321849
O 1.158739 -0.292150 1.762263
O 1.280707 -0.988197 -0.647380
O 1.581825 1.301586 -0.148792
H 1.311540 2.251851 0.581135
9
Time step 343
C -0.984610 0.039119 -0.171862
F -0.917395 0.092061 -1.570306
F -1.773760 1.017391 0.239208
F -1.758507 -1.158915 0.054093
S 0.960839 -0.066910 0.322362
O 1.158753 -0.291927 1.760572
O 1.280113 -0.988022 -0.647391
O 1.581843 1.301404 -0.148413
H 1.310640 2.248764 0.580868
9
Time step 344
C -0.982702 0.039293 -0.170807
F -0.917166 0.092212 -1.570500
F -1.774420 1.017452 0.238696
F -1.758662 -1.159176 0.054399
S 0.960774 -0.066951 0.322888
O 1.158766 -0.291699 1.758878
O 1.279532 -0.987870 -0.647426
O 1.581854 1.301254 -0.148019
H 1.309849 2.245271 0.580330
9
Time step 345
C -0.980813 0.039451 -0.169769
F -0.916935 0.092365 -1.570684
F -1.775074 1.017514 0.238186
F -1.758803 -1.159427 0.054706
S 0.960698 -0.066987 0.323427
O 1.158778 -0.291468 1.757182
O 1.278963 -0.987740 -0.647484
O 1.581859 1.301135 -0.147609
H 1.309170 2.241374 0.579524
9
Time step 346
C -0.978942 0.039596 -0.168750
F -0.916704 0.092519 -1.570858
F -1.775722 1.017577 0.237677
F -1.758932 -1.159668 0.055014
S 0.960612 -0.067018 0.323980
O 1.158788 -0.291233 1.755482
O 1.278407 -0.987634 -0.647566
O 1.581857 1.301046 -0.147183
H 1.308602 2.237075 0.578450
9
Time step 347
C -0.977086 0.039731 -0.167749
F -0.916472 0.092675 -1.571023
F -1.776365 1.017640 0.237170
F -1.759047 -1.159900 0.055324
S 0.960514 -0.067045 0.324545
O 1.158797 -0.290994 1.753781
O 1.277864 -0.987551 -0.647672
O 1.581849 1.300988 -0.146743
H 1.308143 2.232378 0.577113
9
Time step 348
C -0.975241 0.039856 -0.166768
F -0.916240 0.092832 -1.571179
F -1.777005 1.017704 0.236665
F -1.759151 -1.160122 0.055637
S 0.960406 -0.067066 0.325124
O 1.158804 -0.290753 1.752078
O 1.277334 -0.987492 -0.647802
O 1.581835 1.300961 -0.146288
H 1.307794 2.227290 0.575517
9
Time step 349
C -0.973404 0.039969 -0.165805
F -0.916009 0.092990 -1.571325
F -1.777642 1.017767 0.236161
F -1.759245 -1.160334 0.055950
S 0.960286 -0.067083 0.325715
O 1.158810 -0.290509 1.750374
O 1.276817 -0.987457 -0.647955
O 1.581815 1.300962 -0.145818
H 1.307550 2.221819 0.573666
9
Time step 350
C -0.971575 0.040068 -0.164861
F -0.915779 0.093150 -1.571460
F -1.778277 1.017831 0.235659
F -1.759327 -1.160536 0.056265
S 0.960157 -0.067093 0.326318
O 1.158814 -0.290262 1.748668
O 1.276312 -0.987445 -0.648131
O 1.581790 1.300994 -0.145335
H 1.307408 2.215973 0.571566
9
Time step 351
C -0.969759 0.040150 -0.163936
F -0.915551 0.093312 -1.571583
F -1.778908 1.017895 0.235157
F -1.759398 -1.160726 0.056580
S 0.960017 -0.067099 0.326932
O 1.158818 -0.290012 1.746961
O 1.275821 -0.987458 -0.648329
O 1.581760 1.301055 -0.144837
H 1.307368 2.209762 0.569219
9
Time step 352
C -0.967963 0.040215 -0.163029
F -0.915322 0.093476 -1.571695
F -1.779534 1.017961 0.234658
F -1.759456 -1.160905 0.056896
S 0.959867 -0.067100 0.327557
O 1.158820 -0.289760 1.745255
O 1.275343 -0.987495 -0.648548
O 1.581725 1.301146 -0.144326
H 1.307425 2.203193 0.566630
9
Time step 353
C -0.966194 0.040262 -0.162144
F -0.915091 0.093642 -1.571794
F -1.780154 1.018028 0.234160
F -1.759498 -1.161072 0.057212
S 0.959707 -0.067097 0.328191
O 1.158820 -0.289504 1.743550
O 1.274878 -0.987555 -0.648788
O 1.581684 1.301267 -0.143801
H 1.307581 2.196276 0.563800
9
Time step 354
C -0.964457 0.040292 -0.161279
F -0.914857 0.093809 -1.571880
F -1.780767 1.018098 0.233665
F -1.759526 -1.161227 0.057529
S 0.959538 -0.067092 0.328834
O 1.158820 -0.289246 1.741845
O 1.274427 -0.987639 -0.649049
O 1.581638 1.301418 -0.143263
H 1.307834 2.189015 0.560731
9
Time step 355
C -0.962750 0.040306 -0.160436
F -0.914621 0.093978 -1.571955
F -1.781372 1.018169 0.233173
F -1.759537 -1.161370 0.057847
S 0.959358 -0.067084 0.329486
O 1.158818 -0.288985 1.740143
O 1.273989 -0.987745 -0.649330
O 1.581586 1.301600 -0.142712
H 1.308186 2.181418 0.557424
9
Time step 356
C -0.961069 0.040305 -0.159615
F -0.914383 0.094149 -1.572016
F -1.781970 1.018240 0.232683
F -1.759535 -1.161501 0.058167
S 0.959167 -0.067073 0.330147
O 1.158814 -0.288722 1.738444
O 1.273565 -0.987872 -0.649632
O 1.581529 1.301812 -0.142149
H 1.308637 2.173490 0.553882
9
Time step 357
C -0.959410 0.040287 -0.158816
F -0.914144 0.094321 -1.572065
F -1.782561 1.018311 0.232194
F -1.759519 -1.161620 0.058488
S 0.958966 -0.067059 0.330817
O 1.158810 -0.288457 1.736749
O 1.273156 -0.988021 -0.649955
O 1.581466 1.302054 -0.141574
H 1.309191 2.165239 0.550108
9
Time step 358
C -0.957770 0.040254 -0.158040
F -0.913905 0.094496 -1.572101
F -1.783146 1.018380 0.231708
F -1.759491 -1.161725 0.058810
S 0.958754 -0.067042 0.331494
O 1.158804 -0.288192 1.735059
O 1.272759 -0.988190 -0.650297
O 1.581399 1.302324 -0.140989
H 1.309846 2.156671 0.546107
9
Time step 359
C -0.956150 0.040204 -0.157286
F -0.913665 0.094671 -1.572125
F -1.783724 1.018450 0.231223
F -1.759451 -1.161818 0.059133
S 0.958530 -0.067021 0.332179
O 1.158797 -0.287926 1.733376
O 1.272377 -0.988379 -0.650659
O 1.581326 1.302622 -0.140392
H 1.310604 2.147798 0.541884
9
Time step 360
C -0.954554 0.040138 -0.156554
F -0.913425 0.094849 -1.572135
F -1.784296 1.018520 0.230740
F -1.759396 -1.161900 0.059458
S 0.958296 -0.066997 0.332869
O 1.158789 -0.287660 1.731700
O 1.272007 -0.988588 -0.651039
O 1.581250 1.302945 -0.139785
H 1.311464 2.138633 0.537448
9
Time step 361
C -0.952988 0.040059 -0.155846
F -0.913183 0.095027 -1.572132
F -1.784862 1.018590 0.230259
F -1.759327 -1.161971 0.059784
S 0.958052 -0.066968 0.333564
O 1.158780 -0.287394 1.730033
O 1.271651 -0.988816 -0.651438
O 1.581169 1.303294 -0.139168
H 1.312423 2.129190 0.532807
9
Time step 362
C -0.951456 0.039968 -0.155159
F -0.912938 0.095207 -1.572117
F -1.785419 1.018660 0.229781
F -1.759242 -1.162032 0.060112
S 0.957798 -0.066937 0.334264
O 1.158772 -0.287127 1.728377
O 1.271307 -0.989063 -0.651855
O 1.581084 1.303666 -0.138540
H 1.313479 2.119488 0.527971
9
Time step 363
C -0.949957 0.039866 -0.154493
F -0.912691 0.095388 -1.572090
F -1.785969 1.018730 0.229304
F -1.759141 -1.162082 0.060440
S 0.957534 -0.066904 0.334966
O 1.158763 -0.286860 1.726730
O 1.270976 -0.989328 -0.652289
O 1.580994 1.304062 -0.137904
H 1.314627 2.109547 0.522952
9
Time step 364
C -0.948491 0.039753 -0.153848
F -0.912441 0.095570 -1.572051
F -1.786510 1.018798 0.228830
F -1.759025 -1.162120 0.060770
S 0.957260 -0.066868 0.335671
O 1.158754 -0.286592 1.725096
O 1.270656 -0.989611 -0.652741
O 1.580901 1.304478 -0.137258
H 1.315861 2.099387 0.517763
9
Time step 365
C -0.947053 0.039627 -0.153221
F -0.912189 0.095754 -1.572001
F -1.787044 1.018865 0.228357
F -1.758895 -1.162146 0.061101
S 0.956976 -0.066830 0.336378
O 1.158746 -0.286323 1.723475
O 1.270349 -0.989913 -0.653210
O 1.580803 1.304915 -0.136605
H 1.317175 2.089030 0.512419
9
Time step 366
C -0.945640 0.039488 -0.152615
F -0.911937 0.095940 -1.571939
F -1.787570 1.018929 0.227885
F -1.758753 -1.162160 0.061433
S 0.956682 -0.066789 0.337087
O 1.158738 -0.286054 1.721867
O 1.270053 -0.990233 -0.653697
O 1.580701 1.305372 -0.135944
H 1.318563 2.078498 0.506937
9
Time step 367
C -0.944253 0.039334 -0.152029
F -0.911682 0.096128 -1.571865
F -1.788088 1.018992 0.227414
F -1.758597 -1.162162 0.061765
S 0.956379 -0.066746 0.337797
O 1.158731 -0.285783 1.720274
O 1.269769 -0.990570 -0.654201
O 1.580595 1.305846 -0.135277
H 1.320015 2.067813 0.501333
9
Time step 368
C -0.942892 0.039167 -0.151465
F -0.911426 0.096317 -1.571778
F -1.788597 1.019054 0.226947
F -1.758429 -1.162153 0.062099
S 0.956065 -0.066701 0.338506
O 1.158725 -0.285511 1.718697
O 1.269496 -0.990925 -0.654721
O 1.580485 1.306335 -0.134605
H 1.321527 2.056999 0.495629
9
Time step 369
C -0.941559 0.038989 -0.150927
F -0.911166 0.096507 -1.571678
F -1.789100 1.019117 0.226482
F -1.758246 -1.162134 0.062434
S 0.955742 -0.066654 0.339214
O 1.158720 -0.285238 1.717138
O 1.269233 -0.991297 -0.655258
O 1.580372 1.306839 -0.133928
H 1.323087 2.046083 0.489844
9
Time step 370
C -0.940256 0.038800 -0.150415
F -0.910904 0.096697 -1.571565
F -1.789594 1.019179 0.226020
F -1.758050 -1.162104 0.062772
S 0.955410 -0.066605 0.339919
O 1.158716 -0.284965 1.715597
O 1.268981 -0.991685 -0.655811
O 1.580257 1.307355 -0.133247
H 1.324688 2.035097 0.484005
9
Time step 371
C -0.938982 0.038604 -0.149929
F -0.910638 0.096887 -1.571438
F -1.790082 1.019241 0.225561
F -1.757839 -1.162064 0.063111
S 0.955068 -0.066554 0.340621
O 1.158714 -0.284691 1.714076
O 1.268738 -0.992089 -0.656380
O 1.580139 1.307879 -0.132564
H 1.326318 2.024076 0.478139
9
Time step 372
C -0.937735 0.038401 -0.149469
F -0.910370 0.097077 -1.571299
F -1.790562 1.019300 0.225105
F -1.757613 -1.162013 0.063453
S 0.954717 -0.066502 0.341319
O 1.158712 -0.284418 1.712575
O 1.268504 -0.992508 -0.656963
O 1.580020 1.308410 -0.131880
H 1.327966 2.013065 0.472281
9
Time step 373
C -0.936517 0.038188 -0.149033
F -0.910100 0.097268 -1.571146
F -1.791035 1.019358 0.224650
F -1.757373 -1.161950 0.063796
S 0.954358 -0.066449 0.342012
O 1.158712 -0.284144 1.711096
O 1.268280 -0.992943 -0.657562
O 1.579901 1.308944 -0.131199
H 1.329616 2.002112 0.466469
9
Time step 374
C -0.935326 0.037963 -0.148620
F -0.909830 0.097460 -1.570980
F -1.791500 1.019413 0.224196
F -1.757119 -1.161874 0.064141
S 0.953991 -0.066393 0.342700
O 1.158713 -0.283871 1.709639
O 1.268066 -0.993392 -0.658174
O 1.579781 1.309478 -0.130522
H 1.331252 1.991273 0.460750
9
Time step 375
C -0.934166 0.037725 -0.148228
F -0.909558 0.097653 -1.570800
F -1.791957 1.019467 0.223743
F -1.756849 -1.161786 0.064487
S 0.953614 -0.066337 0.343383
O 1.158716 -0.283599 1.708204
O 1.267862 -0.993856 -0.658799
O 1.579663 1.310008 -0.129854
H 1.332858 1.980608 0.455172
9
Time step 376
C -0.933038 0.037472 -0.147857
F -0.909286 0.097847 -1.570606
F -1.792405 1.019521 0.223290
F -1.756563 -1.161685 0.064834
S 0.953229 -0.066280 0.344058
O 1.158720 -0.283326 1.706792
O 1.267668 -0.994332 -0.659437
O 1.579547 1.310531 -0.129198
H 1.334412 1.970179 0.449789
9
Time step 377
C -0.931944 0.037205 -0.147509
F -0.909011 0.098043 -1.570398
F -1.792844 1.019574 0.222838
F -1.756262 -1.161572 0.065181
S 0.952836 -0.066222 0.344726
O 1.158726 -0.283054 1.705404
O 1.267483 -0.994822 -0.660086
O 1.579435 1.311042 -0.128557
H 1.335895 1.960049 0.444655
9
Time step 378
C -0.930882 0.036926 -0.147185
F -0.908734 0.098239 -1.570176
F -1.793274 1.019628 0.222388
F -1.755946 -1.161448 0.065530
S 0.952434 -0.066165 0.345385
O 1.158734 -0.282782 1.704040
O 1.267308 -0.995323 -0.660745
O 1.579327 1.311538 -0.127933
H 1.337285 1.950283 0.439825
9
Time step 379
C -0.929852 0.036636 -0.146887
F -0.908454 0.098438 -1.569940
F -1.793695 1.019681 0.221941
F -1.755615 -1.161314 0.065881
S 0.952024 -0.066110 0.346034
O 1.158744 -0.282509 1.702702
O 1.267142 -0.995837 -0.661415
O 1.579226 1.312017 -0.127330
H 1.338561 1.940942 0.435352
9
Time step 380
C -0.928852 0.036339 -0.146614
F -0.908173 0.098637 -1.569691
F -1.794108 1.019731 0.221495
F -1.755269 -1.161168 0.066234
S 0.951605 -0.066057 0.346673
O 1.158756 -0.282236 1.701391
O 1.266984 -0.996363 -0.662094
O 1.579132 1.312475 -0.126752
H 1.339700 1.932087 0.431287
9
Time step 381
C -0.927885 0.036034 -0.146368
F -0.907889 0.098838 -1.569429
F -1.794511 1.019778 0.221052
F -1.754910 -1.161012 0.066590
S 0.951179 -0.066005 0.347300
O 1.158769 -0.281964 1.700109
O 1.266835 -0.996901 -0.662782
O 1.579048 1.312909 -0.126201
H 1.340683 1.923779 0.427682
9
Time step 382
C -0.926954 0.035720 -0.146148
F -0.907602 0.099040 -1.569153
F -1.794904 1.019822 0.220611
F -1.754536 -1.160843 0.066948
S 0.950745 -0.065954 0.347915
O 1.158784 -0.281693 1.698857
O 1.266694 -0.997450 -0.663478
O 1.578973 1.313315 -0.125681
H 1.341486 1.916075 0.424586
9
Time step 383
C -0.926063 0.035397 -0.145953
F -0.907312 0.099243 -1.568864
F -1.795286 1.019863 0.220172
F -1.754146 -1.160663 0.067308
S 0.950304 -0.065905 0.348517
O 1.158801 -0.281424 1.697636
O 1.266560 -0.998011 -0.664182
O 1.578910 1.313689 -0.125195
H 1.342090 1.909032 0.422049
9
Time step 384
C -0.925217 0.035062 -0.145782
F -0.907018 0.099447 -1.568561
F -1.795656 1.019903 0.219735
F -1.753738 -1.160470 0.067669
S 0.949855 -0.065856 0.349105
O 1.158821 -0.281158 1.696449
O 1.266435 -0.998582 -0.664893
O 1.578860 1.314030 -0.124748
H 1.342472 1.902706 0.420121
9
Time step 385
C -0.924416 0.034715 -0.145634
F -0.906721 0.099653 -1.568244
F -1.796015 1.019940 0.219300
F -1.753313 -1.160266 0.068031
S 0.949399 -0.065809 0.349678
O 1.158843 -0.280896 1.695294
O 1.266318 -0.999164 -0.665611
O 1.578825 1.314332 -0.124343
H 1.342613 1.897146 0.418846
9
Time step 386
C -0.923656 0.034357 -0.145508
F -0.906421 0.099860 -1.567913
F -1.796363 1.019977 0.218867
F -1.752871 -1.160050 0.068393
S 0.948935 -0.065763 0.350236
O 1.158869 -0.280636 1.694174
O 1.266209 -0.999755 -0.666335
O 1.578808 1.314594 -0.123982
H 1.342493 1.892397 0.418270
9
Time step 387
C -0.922934 0.033989 -0.145406
F -0.906119 0.100068 -1.567568
F -1.796703 1.020010 0.218435
F -1.752413 -1.159821 0.068756
S 0.948462 -0.065719 0.350780
O 1.158898 -0.280380 1.693089
O 1.266108 -1.000355 -0.667064
O 1.578808 1.314813 -0.123666
H 1.342095 1.888491 0.418425
9
Time step 388
C -0.922246 0.033613 -0.145329
F -0.905817 0.100277 -1.567211
F -1.797035 1.020041 0.218005
F -1.751942 -1.159581 0.069120
S 0.947982 -0.065677 0.351307
O 1.158932 -0.280126 1.692040
O 1.266015 -1.000964 -0.667800
O 1.578829 1.314989 -0.123399
H 1.341409 1.885452 0.419338
9
Time step 389
C -0.921590 0.033229 -0.145276
F -0.905512 0.100486 -1.566840
F -1.797359 1.020070 0.217577
F -1.751457 -1.159330 0.069485
S 0.947494 -0.065639 0.351819
O 1.158970 -0.279874 1.691027
O 1.265930 -1.001581 -0.668541
O 1.578868 1.315121 -0.123179
H 1.340426 1.883289 0.421021
9
Time step 390
C -0.920968 0.032837 -0.145250
F -0.905206 0.100696 -1.566456
F -1.797674 1.020095 0.217152
F -1.750959 -1.159069 0.069852
S 0.946998 -0.065603 0.352315
O 1.159012 -0.279624 1.690050
O 1.265853 -1.002206 -0.669287
O 1.578928 1.315210 -0.123007
H 1.339146 1.882000 0.423477
9
Time step 391
C -0.920385 0.032436 -0.145250
F -0.904896 0.100907 -1.566060
F -1.797978 1.020119 0.216730
F -1.750448 -1.158797 0.070221
S 0.946496 -0.065570 0.352793
O 1.159057 -0.279378 1.689111
O 1.265783 -1.002839 -0.670039
O 1.579005 1.315256 -0.122882
H 1.337571 1.881571 0.426694
9
Time step 392
C -0.919843 0.032025 -0.145276
F -0.904582 0.101118 -1.565651
F -1.798270 1.020142 0.216311
F -1.749923 -1.158514 0.070592
S 0.945985 -0.065540 0.353252
O 1.159107 -0.279135 1.688211
O 1.265720 -1.003479 -0.670795
O 1.579100 1.315262 -0.122803
H 1.335710 1.881979 0.430653
9
Time step 393
C -0.919344 0.031603 -0.145328
F -0.904264 0.101328 -1.565229
F -1.798551 1.020164 0.215895
F -1.749382 -1.158221 0.070964
S 0.945468 -0.065511 0.353693
O 1.159159 -0.278896 1.687350
O 1.265664 -1.004125 -0.671555
O 1.579210 1.315227 -0.122768
H 1.333575 1.883194 0.435327
9
Time step 394
C -0.918884 0.031171 -0.145404
F -0.903943 0.101539 -1.564793
F -1.798819 1.020185 0.215481
F -1.748826 -1.157915 0.071338
S 0.944944 -0.065486 0.354114
O 1.159215 -0.278661 1.686529
O 1.265615 -1.004777 -0.672319
O 1.579335 1.315155 -0.122776
H 1.331179 1.885178 0.440682
9
Time step 395
C -0.918460 0.030729 -0.145504
F -0.903621 0.101750 -1.564344
F -1.799077 1.020204 0.215070
F -1.748253 -1.157598 0.071713
S 0.944412 -0.065462 0.354514
O 1.159274 -0.278431 1.685748
O 1.265572 -1.005434 -0.673085
O 1.579473 1.315046 -0.122822
H 1.328542 1.887890 0.446679
9
Time step 396
C -0.918070 0.030281 -0.145629
F -0.903296 0.101961 -1.563882
F -1.799324 1.020220 0.214659
F -1.747665 -1.157268 0.072091
S 0.943874 -0.065442 0.354893
O 1.159336 -0.278205 1.685010
O 1.265536 -1.006096 -0.673854
O 1.579621 1.314903 -0.122904
H 1.325684 1.891282 0.453274
9
Time step 397
C -0.917713 0.029827 -0.145778
F -0.902970 0.102172 -1.563406
F -1.799563 1.020232 0.214251
F -1.747062 -1.156927 0.072470
S 0.943328 -0.065425 0.355250
O 1.159401 -0.277982 1.684313
O 1.265506 -1.006763 -0.674626
O 1.579780 1.314729 -0.123019
H 1.322626 1.895300 0.460420
9
Time step 398
C -0.917390 0.029370 -0.145953
F -0.902642 0.102384 -1.562916
F -1.799793 1.020241 0.213845
F -1.746444 -1.156574 0.072852
S 0.942777 -0.065411 0.355585
O 1.159471 -0.277763 1.683660
O 1.265482 -1.007435 -0.675400
O 1.579948 1.314528 -0.123162
H 1.319394 1.899888 0.468065
9
Time step 399
C -0.917105 0.028911 -0.146153
F -0.902310 0.102596 -1.562414
F -1.800014 1.020248 0.213441
F -1.745811 -1.156212 0.073235
S 0.942219 -0.065401 0.355896
O 1.159544 -0.277547 1.683050
O 1.265464 -1.008113 -0.676176
O 1.580123 1.314303 -0.123331
H 1.316011 1.904984 0.476153
9
Time step 400
C -0.916858 0.028450 -0.146377
F -0.901974 0.102808 -1.561898
F -1.800225 1.020251 0.213039
F -1.745162 -1.155841 0.073621
S 0.941654 -0.065395 0.356184
O 1.159622 -0.277333 1.682484
O 1.265451 -1.008796 -0.676954
O 1.580303 1.314058 -0.123522
H 1.312504 1.910528 0.484625
9
Time step 401
C -0.916650 0.027986 -0.146623
F -0.901634 0.103020 -1.561369
F -1.800426 1.020252 0.212640
F -1.744499 -1.155460 0.074007
S 0.941084 -0.065392 0.356448
O 1.159705 -0.277123 1.681962
O 1.265443 -1.009484 -0.677733
O 1.580487 1.313798 -0.123730
H 1.308897 1.916456 0.493422
9
Time step 402
C -0.916479 0.027518 -0.146891
F -0.901292 0.103232 -1.560828
F -1.800616 1.020250 0.212243
F -1.743821 -1.155068 0.074394
S 0.940506 -0.065392 0.356687
O 1.159792 -0.276916 1.681486
O 1.265440 -1.010176 -0.678513
O 1.580674 1.313527 -0.123953
H 1.305214 1.922712 0.502488
9
Time step 403
C -0.916343 0.027042 -0.147181
F -0.900948 0.103444 -1.560275
F -1.800795 1.020245 0.211847
F -1.743128 -1.154665 0.074783
S 0.939923 -0.065396 0.356902
O 1.159884 -0.276712 1.681055
O 1.265441 -1.010871 -0.679293
O 1.580862 1.313248 -0.124187
H 1.301477 1.929241 0.511767
9
Time step 404
C -0.916243 0.026559 -0.147494
F -0.900602 0.103657 -1.559709
F -1.800963 1.020235 0.211453
F -1.742420 -1.154250 0.075172
S 0.939332 -0.065404 0.357091
O 1.159981 -0.276513 1.680671
O 1.265448 -1.011569 -0.680072
O 1.581050 1.312964 -0.124429
H 1.297707 1.935993 0.521207
9
Time step 405
C -0.916180 0.026067 -0.147831
F -0.900255 0.103870 -1.559130
F -1.801119 1.020223 0.211060
F -1.741698 -1.153823 0.075563
S 0.938734 -0.065416 0.357254
O 1.160083 -0.276318 1.680334
O 1.265459 -1.012268 -0.680849
O 1.581237 1.312678 -0.124676
H 1.293924 1.942925 0.530762
9
Time step 406
C -0.916159 0.025565 -0.148193
F -0.899906 0.104085 -1.558538
F -1.801263 1.020208 0.210670
F -1.740959 -1.153384 0.075956
S 0.938130 -0.065432 0.357391
O 1.160191 -0.276126 1.680045
O 1.265476 -1.012969 -0.681625
O 1.581422 1.312393 -0.124926
H 1.290147 1.949996 0.540388
9
Time step 407
C -0.916183 0.025056 -0.148581
F -0.899553 0.104299 -1.557933
F -1.801395 1.020191 0.210283
F -1.740204 -1.152934 0.076349
S 0.937520 -0.065453 0.357502
O 1.160304 -0.275938 1.679804
O 1.265498 -1.013670 -0.682399
O 1.581603 1.312109 -0.125176
H 1.286393 1.957165 0.550043
9
Time step 408
C -0.916252 0.024541 -0.148994
F -0.899195 0.104515 -1.557314
F -1.801516 1.020173 0.209899
F -1.739433 -1.152475 0.076744
S 0.936903 -0.065479 0.357586
O 1.160422 -0.275754 1.679611
O 1.265525 -1.014373 -0.683171
O 1.581779 1.311830 -0.125424
H 1.282679 1.964397 0.559693
9
Time step 409
C -0.916363 0.024020 -0.149432
F -0.898835 0.104730 -1.556682
F -1.801627 1.020153 0.209517
F -1.738647 -1.152006 0.077139
S 0.936280 -0.065508 0.357644
O 1.160546 -0.275575 1.679465
O 1.265557 -1.015076 -0.683941
O 1.581950 1.311557 -0.125668
H 1.279021 1.971655 0.569302
9
Time step 410
C -0.916512 0.023496 -0.149892
F -0.898471 0.104946 -1.556037
F -1.801728 1.020131 0.209137
F -1.737846 -1.151527 0.077536
S 0.935652 -0.065543 0.357675
O 1.160676 -0.275399 1.679366
O 1.265594 -1.015781 -0.684709
O 1.582115 1.311293 -0.125906
H 1.275433 1.978904 0.578839
9
Time step 411
C -0.916697 0.022970 -0.150375
F -0.898104 0.105162 -1.555380
F -1.801821 1.020106 0.208759
F -1.737031 -1.151040 0.077934
S 0.935018 -0.065581 0.357681
O 1.160811 -0.275229 1.679314
O 1.265634 -1.016486 -0.685474
O 1.582274 1.311040 -0.126138
H 1.271927 1.986113 0.588276
9
Time step 412
C -0.916916 0.022440 -0.150879
F -0.897736 0.105378 -1.554712
F -1.801905 1.020078 0.208382
F -1.736202 -1.150544 0.078334
S 0.934378 -0.065623 0.357662
O 1.160950 -0.275063 1.679308
O 1.265677 -1.017191 -0.686237
O 1.582427 1.310800 -0.126360
H 1.268516 1.993253 0.597585
9
Time step 413
C -0.917173 0.021905 -0.151405
F -0.897365 0.105595 -1.554032
F -1.801979 1.020047 0.208008
F -1.735359 -1.150038 0.078735
S 0.933733 -0.065669 0.357617
O 1.161094 -0.274904 1.679347
O 1.265724 -1.017897 -0.686996
O 1.582572 1.310574 -0.126572
H 1.265208 2.000298 0.606743
9
Time step 414
C -0.917470 0.021364 -0.151953
F -0.896991 0.105812 -1.553343
F -1.802044 1.020014 0.207636
F -1.734501 -1.149524 0.079138
S 0.933083 -0.065719 0.357547
O 1.161243 -0.274749 1.679433
O 1.265775 -1.018604 -0.687752
O 1.582711 1.310364 -0.126772
H 1.262013 2.007227 0.615729
9
Time step 415
C -0.917810 0.020814 -0.152521
F -0.896614 0.106030 -1.552642
F -1.802097 1.019980 0.207267
F -1.733628 -1.149000 0.079542
S 0.932427 -0.065772 0.357450
O 1.161396 -0.274599 1.679565
O 1.265830 -1.019311 -0.688504
O 1.582841 1.310172 -0.126960
H 1.258937 2.014025 0.624523
9
Time step 416
C -0.918194 0.020255 -0.153111
F -0.896234 0.106248 -1.551930
F -1.802138 1.019944 0.206900
F -1.732739 -1.148465 0.079946
S 0.931766 -0.065829 0.357328
O 1.161552 -0.274454 1.679744
O 1.265888 -1.020019 -0.689254
O 1.582962 1.309997 -0.127133
H 1.255984 2.020674 0.633110
9
Time step 417
C -0.918618 0.019687 -0.153720
F -0.895851 0.106466 -1.551207
F -1.802167 1.019906 0.206536
F -1.731835 -1.147921 0.080350
S 0.931099 -0.065889 0.357179
O 1.161713 -0.274314 1.679969
O 1.265950 -1.020727 -0.689999
O 1.583074 1.309841 -0.127293
H 1.253160 2.027164 0.641476
9
Time step 418
C -0.919077 0.019113 -0.154348
F -0.895467 0.106685 -1.550472
F -1.802185 1.019864 0.206175
F -1.730918 -1.147366 0.080755
S 0.930427 -0.065953 0.357004
O 1.161878 -0.274177 1.680240
O 1.266017 -1.021436 -0.690742
O 1.583176 1.309704 -0.127436
H 1.250468 2.033481 0.649607
9
Time step 419
C -0.919569 0.018534 -0.154995
F -0.895081 0.106904 -1.549726
F -1.802192 1.019819 0.205816
F -1.729988 -1.146801 0.081159
S 0.929750 -0.066021 0.356803
O 1.162047 -0.274045 1.680558
O 1.266087 -1.022145 -0.691480
O 1.583267 1.309587 -0.127563
H 1.247911 2.039613 0.657492
9
Time step 420
C -0.920093 0.017954 -0.155664
F -0.894694 0.107123 -1.548970
F -1.802188 1.019769 0.205458
F -1.729046 -1.146227 0.081566
S 0.929067 -0.066093 0.356576
O 1.162221 -0.273918 1.680920
O 1.266160 -1.022852 -0.692214
O 1.583348 1.309490 -0.127673
H 1.245492 2.045547 0.665119
9
Time step 421
C -0.920651 0.017373 -0.156355
F -0.894305 0.107342 -1.548205
F -1.802175 1.019716 0.205103
F -1.728091 -1.145644 0.081974
S 0.928378 -0.066169 0.356323
O 1.162400 -0.273797 1.681327
O 1.266237 -1.023559 -0.692943
O 1.583417 1.309414 -0.127766
H 1.243215 2.051271 0.672476
9
Time step 422
C -0.921246 0.016793 -0.157067
F -0.893912 0.107561 -1.547430
F -1.802152 1.019660 0.204751
F -1.727122 -1.145054 0.082386
S 0.927685 -0.066250 0.356045
O 1.162583 -0.273680 1.681778
O 1.266317 -1.024264 -0.693667
O 1.583476 1.309359 -0.127839
H 1.241083 2.056772 0.679550
9
Time step 423
C -0.921880 0.016212 -0.157801
F -0.893516 0.107779 -1.546645
F -1.802118 1.019602 0.204403
F -1.726138 -1.144456 0.082799
S 0.926986 -0.066337 0.355742
O 1.162770 -0.273569 1.682272
O 1.266401 -1.024967 -0.694385
O 1.583524 1.309327 -0.127894
H 1.239098 2.062040 0.686331
9
Time step 424
C -0.922553 0.015629 -0.158554
F -0.893117 0.107997 -1.545852
F -1.802074 1.019541 0.204056
F -1.725139 -1.143849 0.083213
S 0.926283 -0.066428 0.355413
O 1.162961 -0.273463 1.682810
O 1.266487 -1.025669 -0.695098
O 1.583560 1.309317 -0.127928
H 1.237264 2.067064 0.692807
9
Time step 425
C -0.923260 0.015044 -0.159323
F -0.892716 0.108215 -1.545048
F -1.802021 1.019478 0.203713
F -1.724126 -1.143232 0.083628
S 0.925574 -0.066525 0.355060
O 1.163155 -0.273360 1.683389
O 1.266577 -1.026368 -0.695806
O 1.583585 1.309331 -0.127943
H 1.235582 2.071836 0.698970
9
Time step 426
C -0.924001 0.014456 -0.160109
F -0.892314 0.108431 -1.544235
F -1.801958 1.019412 0.203371
F -1.723098 -1.142605 0.084043
S 0.924862 -0.066628 0.354681
O 1.163353 -0.273262 1.684010
O 1.266671 -1.027065 -0.696508
O 1.583598 1.309367 -0.127936
H 1.234055 2.076351 0.704811
9
Time step 427
C -0.924771 0.013867 -0.160911
F -0.891912 0.108647 -1.543412
F -1.801884 1.019341 0.203031
F -1.722058 -1.141967 0.084458
S 0.924144 -0.066736 0.354277
O 1.163553 -0.273166 1.684673
O 1.266767 -1.027758 -0.697204
O 1.583599 1.309426 -0.127908
H 1.232685 2.080603 0.710327
9
Time step 428
C -0.925573 0.013277 -0.161731
F -0.891508 0.108863 -1.542578
F -1.801800 1.019266 0.202694
F -1.721005 -1.141321 0.084873
S 0.923423 -0.066850 0.353849
O 1.163756 -0.273074 1.685376
O 1.266867 -1.028449 -0.697895
O 1.583586 1.309508 -0.127859
H 1.231473 2.084590 0.715513
9
Time step 429
C -0.926410 0.012689 -0.162571
F -0.891102 0.109078 -1.541735
F -1.801705 1.019187 0.202360
F -1.719940 -1.140666 0.085290
S 0.922697 -0.066969 0.353397
O 1.163962 -0.272986 1.686119
O 1.266970 -1.029136 -0.698580
O 1.583560 1.309613 -0.127788
H 1.230422 2.088308 0.720366
9
Time step 430
C -0.927283 0.012101 -0.163433
F -0.890692 0.109292 -1.540881
F -1.801599 1.019106 0.202029
F -1.718861 -1.140004 0.085708
S 0.921968 -0.067094 0.352920
O 1.164171 -0.272902 1.686903
O 1.267077 -1.029820 -0.699258
O 1.583520 1.309741 -0.127696
H 1.229535 2.091756 0.724882
9
Time step 431
C -0.928193 0.011514 -0.164315
F -0.890279 0.109506 -1.540019
F -1.801482 1.019024 0.201702
F -1.717769 -1.139336 0.086128
S 0.921235 -0.067224 0.352419
O 1.164382 -0.272822 1.687726
O 1.267186 -1.030500 -0.699929
O 1.583465 1.309892 -0.127582
H 1.228813 2.094931 0.729058
9
Time step 432
C -0.929138 0.010926 -0.165217
F -0.889863 0.109719 -1.539149
F -1.801354 1.018941 0.201379
F -1.716665 -1.138661 0.086549
S 0.920499 -0.067359 0.351894
O 1.164597 -0.272747 1.688587
O 1.267299 -1.031178 -0.700594
O 1.583396 1.310067 -0.127446
H 1.228257 2.097832 0.732893
9
Time step 433
C -0.930115 0.010334 -0.166134
F -0.889446 0.109933 -1.538271
F -1.801217 1.018857 0.201058
F -1.715549 -1.137979 0.086972
S 0.919759 -0.067499 0.351346
O 1.164815 -0.272676 1.689487
O 1.267415 -1.031852 -0.701251
O 1.583314 1.310266 -0.127287
H 1.227868 2.100454 0.736384
9
Time step 434
C -0.931120 0.009737 -0.167066
F -0.889027 0.110146 -1.537386
F -1.801071 1.018773 0.200740
F -1.714420 -1.137289 0.087394
S 0.919016 -0.067645 0.350775
O 1.165036 -0.272609 1.690424
O 1.267534 -1.032524 -0.701901
O 1.583217 1.310488 -0.127107
H 1.227645 2.102796 0.739530
9
Time step 435
C -0.932152 0.009137 -0.168010
F -0.888609 0.110360 -1.536495
F -1.800917 1.018687 0.200423
F -1.713280 -1.136591 0.087817
S 0.918269 -0.067796 0.350182
O 1.165261 -0.272545 1.691397
O 1.267657 -1.033192 -0.702544
O 1.583106 1.310734 -0.126904
H 1.227590 2.104852 0.742329
9
Time step 436
C -0.933213 0.008533 -0.168967
F -0.888190 0.110574 -1.535597
F -1.800755 1.018599 0.200109
F -1.712128 -1.135885 0.088239
S 0.917519 -0.067952 0.349567
O 1.165488 -0.272484 1.692404
O 1.267781 -1.033856 -0.703180
O 1.582983 1.311004 -0.126678
H 1.227699 2.106621 0.744783
9
Time step 437
C -0.934306 0.007928 -0.169938
F -0.887769 0.110787 -1.534693
F -1.800583 1.018510 0.199797
F -1.710963 -1.135172 0.088662
S 0.916767 -0.068114 0.348931
O 1.165718 -0.272427 1.693446
O 1.267908 -1.034516 -0.703809
O 1.582846 1.311296 -0.126430
H 1.227972 2.108100 0.746891
9
Time step 438
C -0.935436 0.007324 -0.170924
F -0.887346 0.111000 -1.533781
F -1.800401 1.018419 0.199488
F -1.709785 -1.134452 0.089085
S 0.916012 -0.068281 0.348275
O 1.165951 -0.272372 1.694519
O 1.268036 -1.035172 -0.704430
O 1.582696 1.311611 -0.126160
H 1.228406 2.109290 0.748656
9
Time step 439
C -0.936603 0.006722 -0.171925
F -0.886920 0.111211 -1.532864
F -1.800208 1.018325 0.199182
F -1.708594 -1.133727 0.089509
S 0.915255 -0.068453 0.347598
O 1.166186 -0.272321 1.695624
O 1.268166 -1.035824 -0.705043
O 1.582533 1.311949 -0.125868
H 1.229000 2.110191 0.750080
9
Time step 440
C -0.937808 0.006121 -0.172942
F -0.886491 0.111422 -1.531939
F -1.800005 1.018230 0.198879
F -1.707391 -1.132997 0.089934
S 0.914496 -0.068629 0.346902
O 1.166423 -0.272274 1.696760
O 1.268297 -1.036471 -0.705649
O 1.582359 1.312309 -0.125555
H 1.229752 2.110805 0.751165
9
Time step 441
C -0.939046 0.005521 -0.173973
F -0.886059 0.111632 -1.531009
F -1.799792 1.018132 0.198578
F -1.706176 -1.132261 0.090359
S 0.913734 -0.068810 0.346187
O 1.166662 -0.272230 1.697925
O 1.268429 -1.037114 -0.706246
O 1.582173 1.312691 -0.125220
H 1.230658 2.111135 0.751912
9
Time step 442
C -0.940316 0.004921 -0.175016
F -0.885626 0.111843 -1.530072
F -1.799570 1.018032 0.198280
F -1.704950 -1.131519 0.090785
S 0.912970 -0.068996 0.345454
O 1.166904 -0.272189 1.699119
O 1.268563 -1.037754 -0.706837
O 1.581975 1.313096 -0.124865
H 1.231718 2.111183 0.752323
9
Time step 443
C -0.941614 0.004319 -0.176073
F -0.885192 0.112054 -1.529130
F -1.799338 1.017928 0.197983
F -1.703713 -1.130770 0.091212
S 0.912204 -0.069187 0.344704
O 1.167147 -0.272151 1.700340
O 1.268700 -1.038389 -0.707421
O 1.581767 1.313524 -0.124489
H 1.232931 2.110951 0.752400
9
Time step 444
C -0.942941 0.003715 -0.177141
F -0.884756 0.112265 -1.528182
F -1.799099 1.017823 0.197687
F -1.702466 -1.130015 0.091641
S 0.911435 -0.069383 0.343937
O 1.167391 -0.272117 1.701587
O 1.268838 -1.039020 -0.707998
O 1.581547 1.313974 -0.124093
H 1.234297 2.110441 0.752144
9
Time step 445
C -0.944298 0.003112 -0.178221
F -0.884319 0.112477 -1.527230
F -1.798851 1.017715 0.197394
F -1.701207 -1.129254 0.092069
S 0.910663 -0.069584 0.343155
O 1.167637 -0.272084 1.702859
O 1.268978 -1.039648 -0.708569
O 1.581316 1.314447 -0.123676
H 1.235815 2.109652 0.751557
9
Time step 446
C -0.945683 0.002511 -0.179311
F -0.883880 0.112688 -1.526273
F -1.798594 1.017605 0.197103
F -1.699937 -1.128489 0.092499
S 0.909890 -0.069791 0.342358
O 1.167883 -0.272054 1.704154
O 1.269120 -1.040271 -0.709132
O 1.581073 1.314942 -0.123239
H 1.237487 2.108582 0.750639
9
Time step 447
C -0.947096 0.001912 -0.180411
F -0.883441 0.112898 -1.525312
F -1.798328 1.017494 0.196815
F -1.698656 -1.127718 0.092929
S 0.909114 -0.070004 0.341545
O 1.168129 -0.272025 1.705471
O 1.269264 -1.040889 -0.709689
O 1.580819 1.315459 -0.122781
H 1.239313 2.107231 0.749392
9
Time step 448
C -0.948533 0.001318 -0.181519
F -0.883000 0.113106 -1.524348
F -1.798054 1.017380 0.196530
F -1.697365 -1.126942 0.093359
S 0.908337 -0.070223 0.340718
O 1.168374 -0.271998 1.706808
O 1.269409 -1.041503 -0.710238
O 1.580554 1.315999 -0.122302
H 1.241292 2.105597 0.747816
9
Time step 449
C -0.949994 0.000727 -0.182635
F -0.882559 0.113313 -1.523381
F -1.797771 1.017263 0.196248
F -1.696065 -1.126162 0.093789
S 0.907558 -0.070447 0.339876
O 1.168618 -0.271972 1.708165
O 1.269556 -1.042112 -0.710779
O 1.580276 1.316561 -0.121802
H 1.243424 2.103679 0.745912
9
Time step 450
C -0.951475 0.000141 -0.183758
F -0.882118 0.113518 -1.522413
F -1.797480 1.017144 0.195969
F -1.694756 -1.125376 0.094220
S 0.906778 -0.070678 0.339021
O 1.168860 -0.271947 1.709541
O 1.269705 -1.042716 -0.711313
O 1.579987 1.317145 -0.121281
H 1.245708 2.101475 0.743678
9
Time step 451
C -0.952977 -0.000440 -0.184889
F -0.881676 0.113723 -1.521443
F -1.797182 1.017022 0.195693
F -1.693437 -1.124587 0.094653
S 0.905997 -0.070916 0.338152
O 1.169100 -0.271924 1.710934
O 1.269856 -1.043315 -0.711839
O 1.579684 1.317752 -0.120740
H 1.248143 2.098986 0.741114
9
Time step 452
C -0.954500 -0.001017 -0.186029
F -0.881234 0.113928 -1.520471
F -1.796876 1.016899 0.195420
F -1.692109 -1.123793 0.095087
S 0.905215 -0.071161 0.337270
O 1.169339 -0.271901 1.712345
O 1.270010 -1.043910 -0.712357
O 1.579370 1.318381 -0.120178
H 1.250728 2.096213 0.738218
9
Time step 453
C -0.956044 -0.001590 -0.187177
F -0.880790 0.114133 -1.519497
F -1.796562 1.016774 0.195151
F -1.690771 -1.122995 0.095522
S 0.904431 -0.071413 0.336377
O 1.169575 -0.271879 1.713772
O 1.270166 -1.044499 -0.712867
O 1.579043 1.319033 -0.119597
H 1.253461 2.093158 0.734991
9
Time step 454
C -0.957610 -0.002158 -0.188333
F -0.880346 0.114337 -1.518522
F -1.796240 1.016648 0.194884
F -1.689423 -1.122195 0.095957
S 0.903645 -0.071672 0.335472
O 1.169811 -0.271858 1.715215
O 1.270324 -1.045083 -0.713370
O 1.578703 1.319707 -0.118997
H 1.256339 2.089823 0.731431
9
Time step 455
C -0.959196 -0.002722 -0.189495
F -0.879902 0.114541 -1.517545
F -1.795910 1.016522 0.194621
F -1.688067 -1.121392 0.096393
S 0.902857 -0.071938 0.334556
O 1.170045 -0.271838 1.716672
O 1.270484 -1.045662 -0.713865
O 1.578351 1.320402 -0.118377
H 1.259360 2.086211 0.727542
9
Time step 456
C -0.960799 -0.003282 -0.190661
F -0.879457 0.114745 -1.516567
F -1.795571 1.016394 0.194360
F -1.686703 -1.120586 0.096828
S 0.902068 -0.072211 0.333629
O 1.170278 -0.271820 1.718143
O 1.270646 -1.046236 -0.714351
O 1.577987 1.321120 -0.117738
H 1.262521 2.082326 0.723327
9
Time step 457
C -0.962420 -0.003837 -0.191829
F -0.879012 0.114947 -1.515589
F -1.795225 1.016265 0.194102
F -1.685332 -1.119776 0.097263
S 0.901277 -0.072490 0.332691
O 1.170510 -0.271803 1.719628
O 1.270810 -1.046805 -0.714828
O 1.577611 1.321859 -0.117080
H 1.265818 2.078172 0.718789
9
Time step 458
C -0.964060 -0.004387 -0.193000
F -0.878567 0.115148 -1.514611
F -1.794870 1.016135 0.193846
F -1.683954 -1.118964 0.097699
S 0.900486 -0.072775 0.331742
O 1.170740 -0.271788 1.721124
O 1.270976 -1.047368 -0.715296
O 1.577224 1.322620 -0.116402
H 1.269248 2.073751 0.713933
9
Time step 459
C -0.965720 -0.004930 -0.194173
F -0.878121 0.115347 -1.513635
F -1.794506 1.016003 0.193594
F -1.682569 -1.118151 0.098134
S 0.899695 -0.073067 0.330784
O 1.170968 -0.271774 1.722632
O 1.271143 -1.047925 -0.715756
O 1.576824 1.323402 -0.115705
H 1.272810 2.069068 0.708766
9
Time step 460
C -0.967402 -0.005466 -0.195351
F -0.877673 0.115545 -1.512661
F -1.794134 1.015871 0.193345
F -1.681177 -1.117336 0.098572
S 0.898904 -0.073364 0.329815
O 1.171195 -0.271762 1.724150
O 1.271312 -1.048477 -0.716207
O 1.576412 1.324204 -0.114989
H 1.276501 2.064126 0.703294
9
Time step 461
C -0.969108 -0.005994 -0.196534
F -0.877224 0.115742 -1.511689
F -1.793754 1.015739 0.193100
F -1.679777 -1.116521 0.099011
S 0.898113 -0.073669 0.328838
O 1.171419 -0.271751 1.725677
O 1.271481 -1.049023 -0.716649
O 1.575989 1.325026 -0.114254
H 1.280320 2.058932 0.697524
9
Time step 462
C -0.970835 -0.006515 -0.197723
F -0.876773 0.115938 -1.510720
F -1.793366 1.015607 0.192858
F -1.678368 -1.115707 0.099452
S 0.897323 -0.073980 0.327853
O 1.171641 -0.271741 1.727213
O 1.271652 -1.049562 -0.717083
O 1.575555 1.325867 -0.113502
H 1.284264 2.053492 0.691463
9
Time step 463
C -0.972581 -0.007030 -0.198916
F -0.876322 0.116133 -1.509753
F -1.792971 1.015476 0.192620
F -1.676952 -1.114892 0.099894
S 0.896533 -0.074297 0.326861
O 1.171860 -0.271731 1.728756
O 1.271824 -1.050097 -0.717509
O 1.575110 1.326725 -0.112733
H 1.288332 2.047817 0.685123
9
Time step 464
C -0.974342 -0.007541 -0.200112
F -0.875871 0.116328 -1.508787
F -1.792570 1.015345 0.192385
F -1.675529 -1.114076 0.100337
S 0.895742 -0.074620 0.325862
O 1.172077 -0.271720 1.730307
O 1.271997 -1.050625 -0.717928
O 1.574655 1.327600 -0.111947
H 1.292518 2.041920 0.678516
9
Time step 465
C -0.976116 -0.008050 -0.201310
F -0.875422 0.116523 -1.507823
F -1.792161 1.015215 0.192152
F -1.674100 -1.113260 0.100779
S 0.894952 -0.074950 0.324857
O 1.172292 -0.271710 1.731863
O 1.272171 -1.051148 -0.718339
O 1.574190 1.328491 -0.111146
H 1.296817 2.035813 0.671655
9
Time step 466
C -0.977903 -0.008555 -0.202509
F -0.874974 0.116717 -1.506862
F -1.791747 1.015083 0.191922
F -1.672664 -1.112442 0.101222
S 0.894161 -0.075286 0.323846
O 1.172504 -0.271698 1.733423
O 1.272346 -1.051666 -0.718742
O 1.573716 1.329398 -0.110330
H 1.301222 2.029512 0.664559
9
Time step 467
C -0.979706 -0.009055 -0.203709
F -0.874525 0.116911 -1.505902
F -1.791325 1.014950 0.191694
F -1.671223 -1.111622 0.101665
S 0.893371 -0.075628 0.322830
O 1.172714 -0.271685 1.734987
O 1.272522 -1.052178 -0.719138
O 1.573234 1.330319 -0.109500
H 1.305724 2.023033 0.657245
9
Time step 468
C -0.981527 -0.009548 -0.204909
F -0.874076 0.117104 -1.504946
F -1.790897 1.014816 0.191469
F -1.669774 -1.110801 0.102108
S 0.892580 -0.075979 0.321808
O 1.172921 -0.271670 1.736552
O 1.272699 -1.052684 -0.719526
O 1.572744 1.331254 -0.108658
H 1.310316 2.016391 0.649735
9
Time step 469
C -0.983365 -0.010030 -0.206109
F -0.873626 0.117296 -1.503993
F -1.790462 1.014682 0.191247
F -1.668318 -1.109981 0.102552
S 0.891790 -0.076337 0.320783
O 1.173124 -0.271654 1.738118
O 1.272876 -1.053184 -0.719905
O 1.572247 1.332201 -0.107806
H 1.314987 2.009603 0.642049
9
Time step 470
C -0.985220 -0.010500 -0.207308
F -0.873175 0.117486 -1.503046
F -1.790021 1.014546 0.191029
F -1.666855 -1.109162 0.102997
S 0.891001 -0.076703 0.319755
O 1.173324 -0.271637 1.739682
O 1.273053 -1.053677 -0.720276
O 1.571743 1.333159 -0.106944
H 1.319730 2.002687 0.634214
9
Time step 471
C -0.987089 -0.010958 -0.208502
F -0.872724 0.117675 -1.502105
F -1.789575 1.014411 0.190813
F -1.665388 -1.108346 0.103443
S 0.890215 -0.077076 0.318724
O 1.173520 -0.271618 1.741244
O 1.273231 -1.054164 -0.720639
O 1.571232 1.334127 -0.106075
H 1.324535 1.995663 0.626256
9
Time step 472
C -0.988967 -0.011403 -0.209692
F -0.872273 0.117862 -1.501172
F -1.789124 1.014276 0.190600
F -1.663916 -1.107532 0.103890
S 0.889430 -0.077457 0.317691
O 1.173711 -0.271599 1.742801
O 1.273410 -1.054645 -0.720993
O 1.570715 1.335103 -0.105201
H 1.329393 1.988553 0.618206
9
Time step 473
C -0.990852 -0.011837 -0.210874
F -0.871824 0.118049 -1.500248
F -1.788668 1.014141 0.190389
F -1.662442 -1.106721 0.104338
S 0.888648 -0.077844 0.316657
O 1.173896 -0.271579 1.744355
O 1.273590 -1.055119 -0.721339
O 1.570192 1.336085 -0.104325
H 1.334295 1.981387 0.610095
9
Time step 474
C -0.992744 -0.012262 -0.212049
F -0.871375 0.118236 -1.499332
F -1.788207 1.014006 0.190182
F -1.660966 -1.105913 0.104788
S 0.887868 -0.078238 0.315622
O 1.174076 -0.271559 1.745903
O 1.273772 -1.055589 -0.721676
O 1.569663 1.337070 -0.103448
H 1.339230 1.974197 0.601962
9
Time step 475
C -0.994642 -0.012676 -0.213217
F -0.870927 0.118423 -1.498424
F -1.787741 1.013871 0.189977
F -1.659487 -1.105109 0.105239
S 0.887090 -0.078637 0.314586
O 1.174251 -0.271537 1.747447
O 1.273956 -1.056053 -0.722006
O 1.569129 1.338057 -0.102574
H 1.344188 1.967024 0.593847
9
Time step 476
C -0.996547 -0.013080 -0.214378
F -0.870479 0.118610 -1.497525
F -1.787270 1.013736 0.189775
F -1.658005 -1.104307 0.105691
S 0.886312 -0.079043 0.313551
O 1.174421 -0.271514 1.748985
O 1.274142 -1.056514 -0.722329
O 1.568591 1.339042 -0.101705
H 1.349156 1.959911 0.585792
9
Time step 477
C -0.998458 -0.013472 -0.215532
F -0.870031 0.118797 -1.496633
F -1.786793 1.013601 0.189576
F -1.656519 -1.103508 0.106143
S 0.885535 -0.079455 0.312515
O 1.174586 -0.271489 1.750517
O 1.274330 -1.056970 -0.722647
O 1.568049 1.340022 -0.100844
H 1.354120 1.952903 0.577843
9
Time step 478
C -1.000373 -0.013852 -0.216681
F -0.869583 0.118983 -1.495749
F -1.786311 1.013466 0.189380
F -1.655030 -1.102713 0.106596
S 0.884757 -0.079874 0.311481
O 1.174746 -0.271461 1.752043
O 1.274521 -1.057421 -0.722958
O 1.567506 1.340995 -0.099995
H 1.359065 1.946051 0.570050
9
Time step 479
C -1.002291 -0.014218 -0.217823
F -0.869137 0.119168 -1.494872
F -1.785824 1.013332 0.189188
F -1.653539 -1.101922 0.107049
S 0.883980 -0.080299 0.310448
O 1.174901 -0.271431 1.753562
O 1.274714 -1.057868 -0.723264
O 1.566961 1.341956 -0.099160
H 1.363974 1.939403 0.562463
9
Time step 480
C -1.004210 -0.014572 -0.218959
F -0.868692 0.119353 -1.494005
F -1.785334 1.013198 0.188999
F -1.652047 -1.101136 0.107503
S 0.883205 -0.080731 0.309418
O 1.175051 -0.271399 1.755074
O 1.274909 -1.058310 -0.723563
O 1.566417 1.342903 -0.098343
H 1.368831 1.933011 0.555136
9
Time step 481
C -1.006130 -0.014914 -0.220088
F -0.868249 0.119538 -1.493148
F -1.784838 1.013066 0.188814
F -1.650555 -1.100356 0.107958
S 0.882431 -0.081169 0.308389
O 1.175195 -0.271365 1.756576
O 1.275106 -1.058746 -0.723855
O 1.565874 1.343833 -0.097547
H 1.373616 1.926926 0.548127
9
Time step 482
C -1.008052 -0.015244 -0.221208
F -0.867806 0.119722 -1.492302
F -1.784339 1.012935 0.188633
F -1.649063 -1.099583 0.108415
S 0.881660 -0.081614 0.307362
O 1.175334 -0.271330 1.758068
O 1.275304 -1.059176 -0.724140
O 1.565333 1.344743 -0.096776
H 1.378312 1.921199 0.541494
9
Time step 483
C -1.009980 -0.015559 -0.222319
F -0.867363 0.119906 -1.491468
F -1.783834 1.012806 0.188455
F -1.647571 -1.098817 0.108875
S 0.880892 -0.082066 0.306338
O 1.175466 -0.271293 1.759550
O 1.275503 -1.059599 -0.724416
O 1.564796 1.345629 -0.096034
H 1.382903 1.915881 0.535299
9
Time step 484
C -1.011914 -0.015858 -0.223420
F -0.866919 0.120088 -1.490649
F -1.783325 1.012678 0.188281
F -1.646077 -1.098058 0.109336
S 0.880126 -0.082525 0.305315
O 1.175593 -0.271255 1.761021
O 1.275703 -1.060016 -0.724684
O 1.564264 1.346489 -0.095325
H 1.387371 1.911027 0.529606
9
Time step 485
C -1.013852 -0.016140 -0.224509
F -0.866475 0.120270 -1.489842
F -1.782812 1.012551 0.188111
F -1.644581 -1.097306 0.109800
S 0.879363 -0.082991 0.304296
O 1.175713 -0.271215 1.762481
O 1.275903 -1.060427 -0.724945
O 1.563737 1.347318 -0.094653
H 1.391704 1.906691 0.524479
9
Time step 486
C -1.015791 -0.016403 -0.225585
F -0.866031 0.120449 -1.489050
F -1.782294 1.012426 0.187945
F -1.643084 -1.096562 0.110266
S 0.878602 -0.083465 0.303280
O 1.175826 -0.271174 1.763928
O 1.276103 -1.060831 -0.725198
O 1.563216 1.348114 -0.094021
H 1.395887 1.902927 0.519979
9
Time step 487
C -1.017729 -0.016649 -0.226648
F -0.865590 0.120626 -1.488271
F -1.781773 1.012302 0.187781
F -1.641586 -1.095824 0.110732
S 0.877843 -0.083945 0.302268
O 1.175934 -0.271130 1.765362
O 1.276303 -1.061229 -0.725444
O 1.562701 1.348873 -0.093433
H 1.399910 1.899785 0.516164
9
Time step 488
C -1.019661 -0.016879 -0.227699
F -0.865150 0.120802 -1.487505
F -1.781247 1.012179 0.187621
F -1.640088 -1.095094 0.111199
S 0.877085 -0.084432 0.301261
O 1.176036 -0.271086 1.766783
O 1.276504 -1.061622 -0.725683
O 1.562194 1.349590 -0.092893
H 1.403763 1.897312 0.513087
9
Time step 489
C -1.021588 -0.017097 -0.228739
F -0.864714 0.120978 -1.486753
F -1.780718 1.012059 0.187463
F -1.638591 -1.094372 0.111667
S 0.876329 -0.084923 0.300259
O 1.176132 -0.271039 1.768190
O 1.276706 -1.062009 -0.725915
O 1.561696 1.350265 -0.092404
H 1.407438 1.895546 0.510793
9
Time step 490
C -1.023511 -0.017302 -0.229769
F -0.864280 0.121153 -1.486014
F -1.780183 1.011941 0.187309
F -1.637095 -1.093658 0.112138
S 0.875575 -0.085420 0.299263
O 1.176222 -0.270992 1.769583
O 1.276910 -1.062391 -0.726142
O 1.561206 1.350895 -0.091967
H 1.410929 1.894519 0.509316
9
Time step 491
C -1.025432 -0.017494 -0.230789
F -0.863846 0.121328 -1.485289
F -1.779645 1.011826 0.187157
F -1.635600 -1.092953 0.112611
S 0.874822 -0.085920 0.298273
O 1.176306 -0.270944 1.770962
O 1.277114 -1.062768 -0.726362
O 1.560725 1.351477 -0.091586
H 1.414231 1.894251 0.508683
9
Time step 492
C -1.027351 -0.017671 -0.231799
F -0.863413 0.121502 -1.484579
F -1.779102 1.011713 0.187010
F -1.634107 -1.092259 0.113089
S 0.874072 -0.086425 0.297289
O 1.176383 -0.270895 1.772325
O 1.277319 -1.063141 -0.726576
O 1.560253 1.352013 -0.091260
H 1.417342 1.894750 0.508910
9
Time step 493
C -1.029269 -0.017829 -0.232798
F -0.862979 0.121676 -1.483884
F -1.778556 1.011602 0.186866
F -1.632615 -1.091574 0.113569
S 0.873324 -0.086935 0.296312
O 1.176454 -0.270845 1.773672
O 1.277525 -1.063508 -0.726784
O 1.559791 1.352501 -0.090991
H 1.420260 1.896018 0.510001
9
Time step 494
C -1.031181 -0.017968 -0.233782
F -0.862546 0.121848 -1.483206
F -1.778008 1.011493 0.186726
F -1.631125 -1.090900 0.114053
S 0.872578 -0.087449 0.295343
O 1.176519 -0.270794 1.775002
O 1.277731 -1.063870 -0.726986
O 1.559337 1.352941 -0.090777
H 1.422991 1.898048 0.511956
9
Time step 495
C -1.033085 -0.018088 -0.234751
F -0.862114 0.122019 -1.482545
F -1.777458 1.011386 0.186589
F -1.629637 -1.090235 0.114540
S 0.871836 -0.087969 0.294380
O 1.176576 -0.270742 1.776314
O 1.277938 -1.064227 -0.727183
O 1.558892 1.353335 -0.090619
H 1.425540 1.900823 0.514762
9
Time step 496
C -1.034978 -0.018189 -0.235704
F -0.861684 0.122189 -1.481902
F -1.776908 1.011281 0.186455
F -1.628153 -1.089580 0.115029
S 0.871097 -0.088493 0.293426
O 1.176626 -0.270688 1.777607
O 1.278146 -1.064579 -0.727374
O 1.558455 1.353682 -0.090514
H 1.427917 1.904323 0.518398
9
Time step 497
C -1.036859 -0.018274 -0.236639
F -0.861257 0.122357 -1.481276
F -1.776357 1.011179 0.186323
F -1.626671 -1.088936 0.115520
S 0.870360 -0.089023 0.292479
O 1.176669 -0.270632 1.778882
O 1.278355 -1.064927 -0.727560
O 1.558024 1.353985 -0.090460
H 1.430136 1.908519 0.522835
9
Time step 498
C -1.038729 -0.018344 -0.237560
F -0.860832 0.122526 -1.480666
F -1.775805 1.011081 0.186195
F -1.625192 -1.088301 0.116014
S 0.869628 -0.089556 0.291541
O 1.176705 -0.270573 1.780138
O 1.278565 -1.065270 -0.727740
O 1.557599 1.354245 -0.090456
H 1.432212 1.913374 0.528035
9
Time step 499
C -1.040591 -0.018399 -0.238465
F -0.860409 0.122695 -1.480073
F -1.775251 1.010986 0.186071
F -1.623716 -1.087678 0.116510
S 0.868898 -0.090093 0.290610
O 1.176733 -0.270512 1.781375
O 1.278775 -1.065610 -0.727915
O 1.557178 1.354465 -0.090497
H 1.434159 1.918846 0.533951
9
Time step 500
C -1.042446 -0.018436 -0.239355
F -0.859987 0.122864 -1.479497
F -1.774694 1.010896 0.185950
F -1.622242 -1.087068 0.117008
S 0.868171 -0.090633 0.289688
O 1.176754 -0.270449 1.782594
O 1.278987 -1.065947 -0.728085
O 1.556761 1.354648 -0.090582
H 1.435993 1.924887 0.540529
9
Time step 501
C -1.044293 -0.018451 -0.240228
F -0.859566 0.123032 -1.478939
F -1.774136 1.010808 0.185833
F -1.620772 -1.086472 0.117508
S 0.867448 -0.091177 0.288774
O 1.176768 -0.270383 1.783794
O 1.279200 -1.066281 -0.728249
O 1.556348 1.354798 -0.090706
H 1.437726 1.931441 0.547710
9
Time step 502
C -1.046129 -0.018440 -0.241083
F -0.859145 0.123199 -1.478399
F -1.773577 1.010723 0.185720
F -1.619305 -1.085891 0.118011
S 0.866727 -0.091724 0.287869
O 1.176775 -0.270315 1.784975
O 1.279413 -1.066612 -0.728409
O 1.555936 1.354918 -0.090867
H 1.439372 1.938450 0.555429
9
Time step 503
C -1.047951 -0.018401 -0.241917
F -0.858725 0.123365 -1.477879
F -1.773018 1.010639 0.185612
F -1.617845 -1.085326 0.118515
S 0.866009 -0.092275 0.286973
O 1.176774 -0.270245 1.786137
O 1.279629 -1.066940 -0.728564
O 1.555526 1.355012 -0.091062
H 1.440940 1.945854 0.563624
9
Time step 504
C -1.049757 -0.018336 -0.242730
F -0.858307 0.123531 -1.477382
F -1.772458 1.010558 0.185507
F -1.616392 -1.084776 0.119022
S 0.865294 -0.092830 0.286088
O 1.176767 -0.270172 1.787278
O 1.279846 -1.067264 -0.728714
O 1.555117 1.355083 -0.091286
H 1.442441 1.953589 0.572228
9
Time step 505
C -1.051544 -0.018247 -0.243522
F -0.857891 0.123697 -1.476906
F -1.771898 1.010478 0.185407
F -1.614947 -1.084240 0.119530
S 0.864583 -0.093390 0.285215
O 1.176752 -0.270096 1.788399
O 1.280066 -1.067585 -0.728859
O 1.554709 1.355136 -0.091535
H 1.443886 1.961597 0.581180
9
Time step 506
C -1.053314 -0.018137 -0.244292
F -0.857477 0.123864 -1.476453
F -1.771338 1.010402 0.185311
F -1.613509 -1.083720 0.120042
S 0.863875 -0.093954 0.284352
O 1.176731 -0.270017 1.789497
O 1.280288 -1.067900 -0.729000
O 1.554300 1.355173 -0.091805
H 1.445284 1.969818 0.590419
9
Time step 507
C -1.055067 -0.018007 -0.245043
F -0.857066 0.124031 -1.476022
F -1.770778 1.010330 0.185220
F -1.612078 -1.083213 0.120557
S 0.863169 -0.094522 0.283502
O 1.176701 -0.269935 1.790574
O 1.280513 -1.068211 -0.729136
O 1.553890 1.355198 -0.092093
H 1.446647 1.978198 0.599889
9
Time step 508
C -1.056804 -0.017860 -0.245774
F -0.856656 0.124198 -1.475614
F -1.770216 1.010263 0.185133
F -1.610653 -1.082721 0.121075
S 0.862466 -0.095094 0.282664
O 1.176664 -0.269849 1.791627
O 1.280739 -1.068517 -0.729268
O 1.553478 1.355215 -0.092396
H 1.447986 1.986686 0.609534
9
Time step 509
C -1.058524 -0.017693 -0.246486
F -0.856249 0.124366 -1.475228
F -1.769654 1.010201 0.185050
F -1.609233 -1.082245 0.121597
S 0.861766 -0.095671 0.281838
O 1.176619 -0.269761 1.792658
O 1.280968 -1.068818 -0.729396
O 1.553063 1.355226 -0.092710
H 1.449309 1.995235 0.619304
9
Time step 510
C -1.060227 -0.017506 -0.247179
F -0.855843 0.124533 -1.474863
F -1.769091 1.010144 0.184971
F -1.607819 -1.081784 0.122122
S 0.861068 -0.096252 0.281025
O 1.176566 -0.269671 1.793665
O 1.281199 -1.069115 -0.729520
O 1.552644 1.355234 -0.093031
H 1.450628 2.003800 0.629149
9
Time step 511
C -1.061909 -0.017296 -0.247852
F -0.855440 0.124699 -1.474520
F -1.768528 1.010094 0.184896
F -1.606413 -1.081341 0.122652
S 0.860374 -0.096837 0.280225
O 1.176504 -0.269578 1.794650
O 1.281432 -1.069407 -0.729642
O 1.552221 1.355241 -0.093359
H 1.451948 2.012342 0.639025
9
Time step 512
C -1.063571 -0.017064 -0.248506
F -0.855039 0.124866 -1.474199
F -1.767966 1.010049 0.184824
F -1.605013 -1.080915 0.123185
S 0.859683 -0.097423 0.279439
O 1.176434 -0.269484 1.795610
O 1.281668 -1.069695 -0.729762
O 1.551794 1.355249 -0.093689
H 1.453275 2.020822 0.648887
9
Time step 513
C -1.065213 -0.016810 -0.249141
F -0.854640 0.125032 -1.473901
F -1.767404 1.010010 0.184756
F -1.603623 -1.080507 0.123723
S 0.858996 -0.098012 0.278669
O 1.176356 -0.269388 1.796546
O 1.281906 -1.069980 -0.729880
O 1.551363 1.355260 -0.094020
H 1.454611 2.029207 0.658698
9
Time step 514
C -1.066835 -0.016534 -0.249758
F -0.854244 0.125199 -1.473625
F -1.766843 1.009977 0.184692
F -1.602240 -1.080118 0.124265
S 0.858312 -0.098601 0.277913
O 1.176269 -0.269291 1.797457
O 1.282148 -1.070261 -0.729997
O 1.550926 1.355274 -0.094351
H 1.455960 2.037465 0.668423
9
Time step 515
C -1.068438 -0.016236 -0.250356
F -0.853848 0.125366 -1.473373
F -1.766282 1.009948 0.184633
F -1.600865 -1.079746 0.124812
S 0.857632 -0.099190 0.277174
O 1.176173 -0.269193 1.798343
O 1.282392 -1.070540 -0.730112
O 1.550486 1.355292 -0.094678
H 1.457320 2.045570 0.678032
9
Time step 516
C -1.070023 -0.015916 -0.250933
F -0.853455 0.125533 -1.473145
F -1.765722 1.009925 0.184578
F -1.599498 -1.079391 0.125363
S 0.856956 -0.099780 0.276449
O 1.176069 -0.269094 1.799204
O 1.282638 -1.070816 -0.730226
O 1.550041 1.355317 -0.095000
H 1.458692 2.053497 0.687499
9
Time step 517
C -1.071588 -0.015575 -0.251489
F -0.853062 0.125699 -1.472942
F -1.765164 1.009906 0.184528
F -1.598138 -1.079054 0.125918
S 0.856283 -0.100369 0.275738
O 1.175957 -0.268994 1.800040
O 1.282886 -1.071090 -0.730336
O 1.549592 1.355350 -0.095316
H 1.460076 2.061225 0.696804
9
Time step 518
C -1.073129 -0.015210 -0.252021
F -0.852672 0.125863 -1.472762
F -1.764608 1.009893 0.184482
F -1.596786 -1.078733 0.126476
S 0.855615 -0.100959 0.275041
O 1.175835 -0.268894 1.800851
O 1.283136 -1.071361 -0.730444
O 1.549140 1.355392 -0.095624
H 1.461471 2.068737 0.705928
9
Time step 519
C -1.074644 -0.014821 -0.252529
F -0.852285 0.126028 -1.472607
F -1.764055 1.009885 0.184441
F -1.595442 -1.078431 0.127037
S 0.854950 -0.101550 0.274357
O 1.175705 -0.268793 1.801638
O 1.283387 -1.071630 -0.730547
O 1.548683 1.355446 -0.095923
H 1.462877 2.076014 0.714852
9
Time step 520
C -1.076131 -0.014410 -0.253013
F -0.851902 0.126191 -1.472475
F -1.763505 1.009884 0.184403
F -1.594108 -1.078148 0.127602
S 0.854291 -0.102141 0.273687
O 1.175565 -0.268691 1.802399
O 1.283639 -1.071896 -0.730647
O 1.548222 1.355513 -0.096212
H 1.464296 2.083041 0.723563
9
Time step 521
C -1.077589 -0.013977 -0.253474
F -0.851523 0.126355 -1.472367
F -1.762957 1.009890 0.184369
F -1.592784 -1.077885 0.128170
S 0.853635 -0.102733 0.273031
O 1.175416 -0.268588 1.803135
O 1.283893 -1.072161 -0.730743
O 1.547758 1.355594 -0.096490
H 1.465729 2.089802 0.732045
9
Time step 522
C -1.079021 -0.013523 -0.253916
F -0.851147 0.126518 -1.472283
F -1.762412 1.009903 0.184339
F -1.591470 -1.077642 0.128742
S 0.852983 -0.103326 0.272389
O 1.175259 -0.268484 1.803846
O 1.284149 -1.072424 -0.730837
O 1.547290 1.355690 -0.096757
H 1.467177 2.096282 0.740282
9
Time step 523
C -1.080427 -0.013048 -0.254338
F -0.850774 0.126683 -1.472222
F -1.761868 1.009923 0.184313
F -1.590165 -1.077419 0.129319
S 0.852334 -0.103919 0.271763
O 1.175093 -0.268380 1.804531
O 1.284407 -1.072686 -0.730928
O 1.546818 1.355802 -0.097012
H 1.468642 2.102467 0.748259
9
Time step 524
C -1.081809 -0.012550 -0.254741
F -0.850402 0.126847 -1.472187
F -1.761326 1.009949 0.184293
F -1.588869 -1.077216 0.129900
S 0.851688 -0.104511 0.271152
O 1.174919 -0.268273 1.805191
O 1.284668 -1.072946 -0.731017
O 1.546342 1.355929 -0.097254
H 1.470124 2.108345 0.755962
9
Time step 525
C -1.083166 -0.012028 -0.255123
F -0.850032 0.127010 -1.472177
F -1.760787 1.009980 0.184279
F -1.587582 -1.077031 0.130486
S 0.851045 -0.105104 0.270558
O 1.174737 -0.268166 1.805824
O 1.284930 -1.073204 -0.731105
O 1.545862 1.356073 -0.097483
H 1.471624 2.113904 0.763377
9
Time step 526
C -1.084495 -0.011480 -0.255484
F -0.849663 0.127173 -1.472193
F -1.760251 1.010016 0.184270
F -1.586305 -1.076866 0.131076
S 0.850405 -0.105697 0.269980
O 1.174547 -0.268057 1.806432
O 1.285193 -1.073461 -0.731192
O 1.545377 1.356233 -0.097697
H 1.473140 2.119137 0.770495
9
Time step 527
C -1.085794 -0.010905 -0.255821
F -0.849296 0.127335 -1.472236
F -1.759719 1.010056 0.184267
F -1.585038 -1.076720 0.131669
S 0.849768 -0.106290 0.269418
O 1.174349 -0.267946 1.807014
O 1.285458 -1.073717 -0.731278
O 1.544889 1.356409 -0.097898
H 1.474670 2.124036 0.777304
9
Time step 528
C -1.087059 -0.010305 -0.256136
F -0.848933 0.127495 -1.472304
F -1.759192 1.010103 0.184269
F -1.583783 -1.076594 0.132266
S 0.849136 -0.106883 0.268873
O 1.174142 -0.267835 1.807570
O 1.285724 -1.073970 -0.731362
O 1.544397 1.356602 -0.098083
H 1.476212 2.128599 0.783799
9
Time step 529
C -1.088292 -0.009680 -0.256429
F -0.848573 0.127656 -1.472397
F -1.758669 1.010157 0.184275
F -1.582539 -1.076489 0.132866
S 0.848509 -0.107476 0.268345
O 1.173927 -0.267721 1.808100
O 1.285992 -1.074222 -0.731445
O 1.543900 1.356811 -0.098254
H 1.477764 2.132819 0.789974
9
Time step 530
C -1.089494 -0.009033 -0.256704
F -0.848217 0.127817 -1.472514
F -1.758151 1.010218 0.184286
F -1.581305 -1.076405 0.133471
S 0.847887 -0.108068 0.267834
O 1.173703 -0.267607 1.808604
O 1.286260 -1.074471 -0.731527
O 1.543400 1.357038 -0.098409
H 1.479323 2.136696 0.795826
9
Time step 531
C -1.090664 -0.008367 -0.256960
F -0.847866 0.127978 -1.472654
F -1.757637 1.010288 0.184301
F -1.580081 -1.076342 0.134079
S 0.847269 -0.108661 0.267341
O 1.173469 -0.267492 1.809081
O 1.286530 -1.074719 -0.731607
O 1.542895 1.357283 -0.098549
H 1.480888 2.140227 0.801352
9
Time step 532
C -1.091806 -0.007681 -0.257199
F -0.847518 0.128139 -1.472818
F -1.757126 1.010367 0.184322
F -1.578866 -1.076298 0.134692
S 0.846657 -0.109252 0.266866
O 1.173226 -0.267377 1.809530
O 1.286801 -1.074966 -0.731687
O 1.542386 1.357544 -0.098674
H 1.482458 2.143408 0.806549
9
Time step 533
C -1.092919 -0.006974 -0.257420
F -0.847173 0.128301 -1.473007
F -1.756618 1.010454 0.184347
F -1.577661 -1.076275 0.135309
S 0.846049 -0.109842 0.266409
O 1.172974 -0.267261 1.809952
O 1.287075 -1.075212 -0.731767
O 1.541872 1.357823 -0.098784
H 1.484030 2.146237 0.811417
9
Time step 534
C -1.094001 -0.006248 -0.257619
F -0.846831 0.128462 -1.473221
F -1.756114 1.010550 0.184377
F -1.576465 -1.076272 0.135931
S 0.845444 -0.110430 0.265970
O 1.172712 -0.267146 1.810347
O 1.287350 -1.075458 -0.731847
O 1.541354 1.358119 -0.098877
H 1.485604 2.148710 0.815952
9
Time step 535
C -1.095051 -0.005499 -0.257797
F -0.846492 0.128624 -1.473461
F -1.755614 1.010653 0.184411
F -1.575281 -1.076291 0.136558
S 0.844844 -0.111016 0.265549
O 1.172441 -0.267030 1.810713
O 1.287629 -1.075703 -0.731927
O 1.540831 1.358432 -0.098955
H 1.487179 2.150824 0.820151
9
Time step 536
C -1.096066 -0.004730 -0.257951
F -0.846156 0.128785 -1.473727
F -1.755118 1.010765 0.184451
F -1.574109 -1.076330 0.137190
S 0.844248 -0.111600 0.265146
O 1.172161 -0.266913 1.811053
O 1.287910 -1.075949 -0.732007
O 1.540303 1.358762 -0.099016
H 1.488754 2.152575 0.824010
9
Time step 537
C -1.097047 -0.003941 -0.258084
F -0.845824 0.128947 -1.474020
F -1.754627 1.010886 0.184495
F -1.572949 -1.076391 0.137826
S 0.843656 -0.112181 0.264760
O 1.171873 -0.266796 1.811366
O 1.288193 -1.076194 -0.732087
O 1.539772 1.359110 -0.099060
H 1.490330 2.153958 0.827526
9
Time step 538
C -1.097994 -0.003135 -0.258194
F -0.845494 0.129109 -1.474337
F -1.754140 1.011016 0.184544
F -1.571801 -1.076473 0.138466
S 0.843068 -0.112759 0.264391
O 1.171576 -0.266679 1.811652
O 1.288479 -1.076439 -0.732167
O 1.539236 1.359476 -0.099087
H 1.491905 2.154969 0.830694
9
Time step 539
C -1.098909 -0.002313 -0.258285
F -0.845168 0.129272 -1.474679
F -1.753658 1.011155 0.184598
F -1.570665 -1.076575 0.139111
S 0.842484 -0.113335 0.264039
O 1.171270 -0.266561 1.811912
O 1.288768 -1.076683 -0.732246
O 1.538698 1.359859 -0.099097
H 1.493481 2.155606 0.833512
9
Time step 540
C -1.099793 -0.001478 -0.258357
F -0.844846 0.129435 -1.475045
F -1.753180 1.011303 0.184658
F -1.569540 -1.076696 0.139758
S 0.841905 -0.113909 0.263704
O 1.170956 -0.266442 1.812146
O 1.289059 -1.076925 -0.732324
O 1.538157 1.360260 -0.099090
H 1.495059 2.155867 0.835976
9
Time step 541
C -1.100645 -0.000628 -0.258411
F -0.844529 0.129598 -1.475435
F -1.752707 1.011460 0.184724
F -1.568424 -1.076834 0.140409
S 0.841329 -0.114480 0.263386
O 1.170633 -0.266322 1.812353
O 1.289353 -1.077167 -0.732400
O 1.537613 1.360678 -0.099066
H 1.496639 2.155755 0.838087
9
Time step 542
C -1.101464 0.000236 -0.258446
F -0.844215 0.129761 -1.475849
F -1.752239 1.011626 0.184796
F -1.567320 -1.076991 0.141063
S 0.840756 -0.115050 0.263084
O 1.170301 -0.266202 1.812535
O 1.289650 -1.077407 -0.732475
O 1.537067 1.361114 -0.099024
H 1.498221 2.155270 0.839844
9
Time step 543
C -1.102247 0.001118 -0.258464
F -0.843906 0.129923 -1.476286
F -1.751778 1.011801 0.184874
F -1.566226 -1.077167 0.141721
S 0.840189 -0.115618 0.262799
O 1.169959 -0.266080 1.812689
O 1.289950 -1.077646 -0.732549
O 1.536517 1.361568 -0.098965
H 1.499805 2.154419 0.841248
9
Time step 544
C -1.102993 0.002018 -0.258463
F -0.843601 0.130085 -1.476748
F -1.751324 1.011986 0.184958
F -1.565144 -1.077363 0.142384
S 0.839625 -0.116185 0.262531
O 1.169608 -0.265958 1.812816
O 1.290254 -1.077884 -0.732622
O 1.535964 1.362038 -0.098888
H 1.501390 2.153205 0.842303
9
Time step 545
C -1.103701 0.002937 -0.258446
F -0.843301 0.130247 -1.477234
F -1.750877 1.012181 0.185049
F -1.564076 -1.077581 0.143051
S 0.839066 -0.116750 0.262280
O 1.169247 -0.265835 1.812915
O 1.290563 -1.078121 -0.732694
O 1.535408 1.362526 -0.098795
H 1.502977 2.151633 0.843011
9
Time step 546
C -1.104369 0.003874 -0.258412
F -0.843005 0.130409 -1.477744
F -1.750439 1.012387 0.185146
F -1.563020 -1.077820 0.143723
S 0.838512 -0.117314 0.262047
O 1.168877 -0.265711 1.812985
O 1.290875 -1.078358 -0.732765
O 1.534849 1.363031 -0.098685
H 1.504564 2.149705 0.843373
9
Time step 547
C -1.105000 0.004829 -0.258360
F -0.842713 0.130571 -1.478279
F -1.750007 1.012604 0.185249
F -1.561976 -1.078081 0.144400
S 0.837962 -0.117877 0.261833
O 1.168497 -0.265585 1.813027
O 1.291190 -1.078593 -0.732837
O 1.534285 1.363553 -0.098559
H 1.506152 2.147424 0.843391
9
Time step 548
C -1.105595 0.005800 -0.258290
F -0.842424 0.130733 -1.478838
F -1.749582 1.012831 0.185358
F -1.560943 -1.078362 0.145082
S 0.837417 -0.118438 0.261638
O 1.168108 -0.265459 1.813040
O 1.291508 -1.078827 -0.732910
O 1.533719 1.364091 -0.098416
H 1.507739 2.144787 0.843065
9
Time step 549
C -1.106153 0.006787 -0.258201
F -0.842139 0.130895 -1.479422
F -1.749163 1.013068 0.185472
F -1.559921 -1.078662 0.145767
S 0.836877 -0.118997 0.261463
O 1.167709 -0.265332 1.813024
O 1.291827 -1.079060 -0.732983
O 1.533148 1.364645 -0.098257
H 1.509325 2.141795 0.842392
9
Time step 550
C -1.106676 0.007787 -0.258092
F -0.841859 0.131056 -1.480030
F -1.748751 1.013315 0.185590
F -1.558909 -1.078979 0.146456
S 0.836341 -0.119553 0.261308
O 1.167300 -0.265205 1.812979
O 1.292149 -1.079291 -0.733057
O 1.532574 1.365214 -0.098081
H 1.510906 2.138447 0.841369
9
Time step 551
C -1.107162 0.008800 -0.257964
F -0.841583 0.131217 -1.480662
F -1.748345 1.013570 0.185714
F -1.557908 -1.079314 0.147148
S 0.835811 -0.120106 0.261172
O 1.166882 -0.265078 1.812904
O 1.292471 -1.079521 -0.733132
O 1.531995 1.365800 -0.097888
H 1.512481 2.134741 0.839994
9
Time step 552
C -1.107611 0.009826 -0.257819
F -0.841312 0.131378 -1.481316
F -1.747946 1.013835 0.185842
F -1.556917 -1.079666 0.147843
S 0.835286 -0.120655 0.261056
O 1.166455 -0.264952 1.812801
O 1.292795 -1.079751 -0.733207
O 1.531413 1.366401 -0.097679
H 1.514046 2.130679 0.838265
9
Time step 553
C -1.108022 0.010864 -0.257660
F -0.841046 0.131537 -1.481992
F -1.747554 1.014112 0.185977
F -1.555937 -1.080037 0.148540
S 0.834768 -0.121201 0.260960
O 1.166019 -0.264827 1.812669
O 1.293119 -1.079979 -0.733281
O 1.530826 1.367017 -0.097454
H 1.515599 2.126261 0.836183
9
Time step 554
C -1.108394 0.011913 -0.257489
F -0.840785 0.131697 -1.482689
F -1.747170 1.014400 0.186118
F -1.554968 -1.080426 0.149241
S 0.834256 -0.121744 0.260883
O 1.165573 -0.264702 1.812509
O 1.293444 -1.080207 -0.733355
O 1.530236 1.367649 -0.097212
H 1.517139 2.121491 0.833750
9
Time step 555
C -1.108727 0.012973 -0.257309
F -0.840529 0.131856 -1.483406
F -1.746794 1.014701 0.186266
F -1.554010 -1.080834 0.149944
S 0.833751 -0.122283 0.260825
O 1.165117 -0.264577 1.812321
O 1.293770 -1.080434 -0.733429
O 1.529641 1.368295 -0.096954
H 1.518665 2.116374 0.830971
9
Time step 556
C -1.109022 0.014043 -0.257118
F -0.840279 0.132014 -1.484144
F -1.746426 1.015014 0.186421
F -1.553063 -1.081261 0.150650
S 0.833252 -0.122820 0.260785
O 1.164653 -0.264452 1.812105
O 1.294096 -1.080660 -0.733502
O 1.529042 1.368957 -0.096680
H 1.520179 2.110915 0.827853
9
Time step 557
C -1.109278 0.015122 -0.256915
F -0.840033 0.132172 -1.484902
F -1.746066 1.015338 0.186583
F -1.552126 -1.081705 0.151358
S 0.832758 -0.123354 0.260764
O 1.164180 -0.264325 1.811863
O 1.294422 -1.080886 -0.733574
O 1.528439 1.369633 -0.096390
H 1.521681 2.105118 0.824404
9
Time step 558
C -1.109495 0.016209 -0.256698
F -0.839793 0.132329 -1.485681
F -1.745713 1.015674 0.186752
F -1.551200 -1.082165 0.152068
S 0.832271 -0.123885 0.260759
O 1.163699 -0.264198 1.811593
O 1.294750 -1.081110 -0.733645
O 1.527832 1.370323 -0.096084
H 1.523171 2.098990 0.820629
9
Time step 559
C -1.109673 0.017303 -0.256465
F -0.839558 0.132486 -1.486481
F -1.745367 1.016020 0.186926
F -1.550284 -1.082641 0.152780
S 0.831789 -0.124413 0.260772
O 1.163209 -0.264069 1.811296
O 1.295078 -1.081334 -0.733714
O 1.527222 1.371028 -0.095761
H 1.524649 2.092537 0.816534
9
Time step 560
C -1.109813 0.018402 -0.256215
F -0.839328 0.132643 -1.487302
F -1.745030 1.016378 0.187105
F -1.549380 -1.083131 0.153494
S 0.831312 -0.124938 0.260800
O 1.162710 -0.263940 1.810972
O 1.295408 -1.081558 -0.733783
O 1.526608 1.371745 -0.095421
H 1.526113 2.085763 0.812125
9
Time step 561
C -1.109916 0.019505 -0.255948
F -0.839104 0.132799 -1.488143
F -1.744699 1.016748 0.187290
F -1.548485 -1.083636 0.154210
S 0.830841 -0.125460 0.260843
O 1.162203 -0.263810 1.810622
O 1.295739 -1.081781 -0.733849
O 1.525990 1.372476 -0.095064
H 1.527561 2.078673 0.807403
9
Time step 562
C -1.109983 0.020611 -0.255667
F -0.838884 0.132954 -1.489004
F -1.744375 1.017130 0.187481
F -1.547602 -1.084157 0.154927
S 0.830375 -0.125976 0.260903
O 1.161687 -0.263682 1.810246
O 1.296072 -1.082004 -0.733915
O 1.525368 1.373220 -0.094692
H 1.528992 2.071271 0.802373
9
Time step 563
C -1.110011 0.021719 -0.255373
F -0.838670 0.133109 -1.489883
F -1.744059 1.017525 0.187677
F -1.546728 -1.084692 0.155647
S 0.829914 -0.126488 0.260977
O 1.161163 -0.263554 1.809845
O 1.296407 -1.082227 -0.733979
O 1.524743 1.373975 -0.094304
H 1.530405 2.063564 0.797038
9
Time step 564
C -1.110002 0.022831 -0.255068
F -0.838461 0.133264 -1.490780
F -1.743750 1.017933 0.187880
F -1.545865 -1.085244 0.156368
S 0.829459 -0.126996 0.261068
O 1.160630 -0.263427 1.809417
O 1.296743 -1.082450 -0.734041
O 1.524114 1.374743 -0.093901
H 1.531800 2.055557 0.791404
9
Time step 565
C -1.109951 0.023947 -0.254754
F -0.838258 0.133419 -1.491695
F -1.743450 1.018352 0.188090
F -1.545012 -1.085810 0.157092
S 0.829010 -0.127499 0.261175
O 1.160088 -0.263300 1.808962
O 1.297081 -1.082673 -0.734102
O 1.523482 1.375521 -0.093485
H 1.533176 2.047260 0.785480
9
Time step 566
C -1.109859 0.025068 -0.254431
F -0.838060 0.133573 -1.492628
F -1.743158 1.018782 0.188306
F -1.544170 -1.086391 0.157819
S 0.828565 -0.127998 0.261299
O 1.159537 -0.263175 1.808482
O 1.297419 -1.082894 -0.734161
O 1.522847 1.376310 -0.093056
H 1.534535 2.038687 0.779280
9
Time step 567
C -1.109723 0.026193 -0.254098
F -0.837869 0.133728 -1.493578
F -1.742876 1.019223 0.188528
F -1.543338 -1.086987 0.158549
S 0.828126 -0.128494 0.261440
O 1.158976 -0.263049 1.807974
O 1.297759 -1.083115 -0.734220
O 1.522209 1.377109 -0.092616
H 1.535876 2.029853 0.772821
9
Time step 568
C -1.109543 0.027321 -0.253758
F -0.837684 0.133884 -1.494547
F -1.742603 1.019675 0.188757
F -1.542518 -1.087596 0.159281
S 0.827693 -0.128987 0.261599
O 1.158405 -0.262924 1.807439
O 1.298100 -1.083335 -0.734276
O 1.521568 1.377916 -0.092166
H 1.537201 2.020777 0.766124
9
Time step 569
C -1.109322 0.028450 -0.253410
F -0.837506 0.134039 -1.495533
F -1.742339 1.020139 0.188993
F -1.541708 -1.088218 0.160016
S 0.827266 -0.129477 0.261775
O 1.157825 -0.262799 1.806876
O 1.298443 -1.083554 -0.734332
O 1.520924 1.378732 -0.091708
H 1.538507 2.011480 0.759214
9
Time step 570
C -1.109060 0.029577 -0.253054
F -0.837335 0.134195 -1.496537
F -1.742085 1.020615 0.189237
F -1.540907 -1.088852 0.160753
S 0.826844 -0.129963 0.261970
O 1.157234 -0.262674 1.806285
O 1.298788 -1.083773 -0.734387
O 1.520278 1.379554 -0.091242
H 1.539794 2.001984 0.752115
9
Time step 571
C -1.108760 0.030701 -0.252692
F -0.837170 0.134350 -1.497557
F -1.741838 1.021104 0.189487
F -1.540116 -1.089499 0.161491
S 0.826428 -0.130445 0.262182
O 1.156635 -0.262550 1.805666
O 1.299135 -1.083992 -0.734442
O 1.519628 1.380381 -0.090771
H 1.541061 1.992309 0.744854
9
Time step 572
C -1.108422 0.031822 -0.252321
F -0.837011 0.134505 -1.498594
F -1.741600 1.021607 0.189745
F -1.539334 -1.090158 0.162230
S 0.826018 -0.130924 0.262413
O 1.156025 -0.262426 1.805020
O 1.299484 -1.084210 -0.734496
O 1.518976 1.381211 -0.090296
H 1.542305 1.982479 0.737459
9
Time step 573
C -1.108046 0.032941 -0.251942
F -0.836859 0.134660 -1.499647
F -1.741370 1.022123 0.190010
F -1.538561 -1.090829 0.162970
S 0.825614 -0.131398 0.262660
O 1.155407 -0.262303 1.804346
O 1.299834 -1.084428 -0.734549
O 1.518320 1.382042 -0.089818
H 1.543527 1.972513 0.729958
9
Time step 574
C -1.107632 0.034058 -0.251553
F -0.836713 0.134813 -1.500716
F -1.741147 1.022651 0.190280
F -1.537797 -1.091511 0.163711
S 0.825217 -0.131868 0.262925
O 1.154779 -0.262180 1.803645
O 1.300185 -1.084644 -0.734602
O 1.517661 1.382873 -0.089339
H 1.544728 1.962433 0.722380
9
Time step 575
C -1.107178 0.035175 -0.251153
F -0.836573 0.134966 -1.501799
F -1.740934 1.023190 0.190556
F -1.537042 -1.092205 0.164452
S 0.824825 -0.132336 0.263206
O 1.154141 -0.262056 1.802917
O 1.300536 -1.084857 -0.734653
O 1.516998 1.383702 -0.088862
H 1.545910 1.952263 0.714760
9
Time step 576
C -1.106685 0.036293 -0.250745
F -0.836439 0.135117 -1.502897
F -1.740729 1.023741 0.190837
F -1.536297 -1.092910 0.165194
S 0.824440 -0.132801 0.263502
O 1.153495 -0.261931 1.802163
O 1.300887 -1.085067 -0.734703
O 1.516332 1.384527 -0.088387
H 1.547076 1.942029 0.707135
9
Time step 577
C -1.106153 0.037410 -0.250328
F -0.836312 0.135268 -1.504009
F -1.740533 1.024302 0.191123
F -1.535560 -1.093625 0.165937
S 0.824061 -0.133264 0.263812
O 1.152840 -0.261806 1.801383
O 1.301239 -1.085273 -0.734749
O 1.515662 1.385346 -0.087918
H 1.548229 1.931763 0.699549
9
Time step 578
C -1.105584 0.038523 -0.249905
F -0.836191 0.135419 -1.505133
F -1.740346 1.024876 0.191416
F -1.534831 -1.094349 0.166681
S 0.823689 -0.133725 0.264137
O 1.152176 -0.261681 1.800577
O 1.301591 -1.085475 -0.734792
O 1.514988 1.386157 -0.087458
H 1.549375 1.921499 0.692054
9
Time step 579
C -1.104979 0.039630 -0.249477
F -0.836076 0.135569 -1.506271
F -1.740168 1.025461 0.191715
F -1.534109 -1.095082 0.167425
S 0.823324 -0.134184 0.264474
O 1.151503 -0.261555 1.799746
O 1.301943 -1.085673 -0.734830
O 1.514309 1.386957 -0.087009
H 1.550519 1.911275 0.684706
9
Time step 580
C -1.104336 0.040727 -0.249045
F -0.835968 0.135718 -1.507421
F -1.739999 1.026060 0.192020
F -1.533394 -1.095822 0.168169
S 0.822964 -0.134639 0.264826
O 1.150821 -0.261430 1.798890
O 1.302295 -1.085867 -0.734864
O 1.513625 1.387742 -0.086577
H 1.551669 1.901135 0.677565
9
Time step 581
C -1.103654 0.041814 -0.248607
F -0.835867 0.135867 -1.508584
F -1.739840 1.026671 0.192332
F -1.532686 -1.096569 0.168914
S 0.822611 -0.135091 0.265190
O 1.150130 -0.261307 1.798009
O 1.302646 -1.086058 -0.734893
O 1.512934 1.388511 -0.086165
H 1.552830 1.891122 0.670696
9
Time step 582
C -1.102932 0.042890 -0.248161
F -0.835773 0.136016 -1.509760
F -1.739689 1.027295 0.192651
F -1.531986 -1.097323 0.169658
S 0.822264 -0.135537 0.265568
O 1.149430 -0.261184 1.797104
O 1.302997 -1.086246 -0.734918
O 1.512237 1.389259 -0.085778
H 1.554010 1.881282 0.664165
9
Time step 583
C -1.102169 0.043954 -0.247709
F -0.835686 0.136165 -1.510949
F -1.739548 1.027931 0.192975
F -1.531294 -1.098084 0.170401
S 0.821925 -0.135979 0.265959
O 1.148722 -0.261062 1.796175
O 1.303348 -1.086430 -0.734940
O 1.511533 1.389984 -0.085419
H 1.555216 1.871661 0.658041
9
Time step 584
C -1.101365 0.045008 -0.247249
F -0.835606 0.136314 -1.512150
F -1.739416 1.028579 0.193305
F -1.530613 -1.098854 0.171143
S 0.821592 -0.136415 0.266364
O 1.148005 -0.260940 1.795221
O 1.303698 -1.086613 -0.734958
O 1.510822 1.390683 -0.085092
H 1.556453 1.862304 0.652391
9
Time step 585
C -1.100520 0.046052 -0.246785
F -0.835533 0.136462 -1.513362
F -1.739293 1.029241 0.193641
F -1.529941 -1.099633 0.171885
S 0.821267 -0.136847 0.266783
O 1.147280 -0.260819 1.794243
O 1.304048 -1.086792 -0.734973
O 1.510103 1.391355 -0.084802
H 1.557729 1.853255 0.647286
9
Time step 586
C -1.099638 0.047087 -0.246318
F -0.835467 0.136610 -1.514585
F -1.739178 1.029915 0.193984
F -1.529279 -1.100421 0.172625
S 0.820949 -0.137274 0.267214
O 1.146547 -0.260698 1.793241
O 1.304397 -1.086969 -0.734984
O 1.509376 1.391996 -0.084553
H 1.559048 1.844556 0.642795
9
Time step 587
C -1.098721 0.048110 -0.245852
F -0.835408 0.136758 -1.515817
F -1.739070 1.030601 0.194333
F -1.528626 -1.101216 0.173365
S 0.820638 -0.137698 0.267659
O 1.145807 -0.260576 1.792215
O 1.304745 -1.087142 -0.734992
O 1.508641 1.392604 -0.084349
H 1.560415 1.836246 0.638987
9
Time step 588
C -1.097769 0.049122 -0.245388
F -0.835355 0.136904 -1.517057
F -1.738969 1.031300 0.194689
F -1.527980 -1.102017 0.174104
S 0.820334 -0.138119 0.268117
O 1.145059 -0.260454 1.791166
O 1.305092 -1.087313 -0.734996
O 1.507897 1.393179 -0.084194
H 1.561835 1.828361 0.635928
9
Time step 589
C -1.096782 0.050122 -0.244925
F -0.835310 0.137050 -1.518305
F -1.738877 1.032011 0.195052
F -1.527341 -1.102824 0.174842
S 0.820037 -0.138536 0.268588
O 1.144303 -0.260333 1.790093
O 1.305437 -1.087481 -0.734996
O 1.507144 1.393719 -0.084092
H 1.563315 1.820936 0.633681
9
Time step 590
C -1.095758 0.051109 -0.244462
F -0.835271 0.137195 -1.519562
F -1.738793 1.032733 0.195421
F -1.526709 -1.103635 0.175579
S 0.819747 -0.138950 0.269071
O 1.143539 -0.260212 1.788997
O 1.305781 -1.087646 -0.734992
O 1.506382 1.394221 -0.084046
H 1.564861 1.814000 0.632303
9
Time step 591
C -1.094696 0.052085 -0.243997
F -0.835240 0.137339 -1.520828
F -1.738718 1.033467 0.195796
F -1.526083 -1.104450 0.176314
S 0.819464 -0.139362 0.269565
O 1.142767 -0.260092 1.787878
O 1.306123 -1.087810 -0.734984
O 1.505609 1.394684 -0.084060
H 1.566480 1.807576 0.631844
9
Time step 592
C -1.093593 0.053049 -0.243526
F -0.835216 0.137482 -1.522103
F -1.738652 1.034213 0.196175
F -1.525465 -1.105270 0.177048
S 0.819189 -0.139770 0.270072
O 1.141987 -0.259972 1.786736
O 1.306463 -1.087971 -0.734972
O 1.504825 1.395108 -0.084135
H 1.568179 1.801682 0.632344
9
Time step 593
C -1.092450 0.054003 -0.243050
F -0.835199 0.137624 -1.523387
F -1.738596 1.034970 0.196560
F -1.524854 -1.106095 0.177781
S 0.818920 -0.140175 0.270590
O 1.141198 -0.259853 1.785571
O 1.306802 -1.088131 -0.734957
O 1.504030 1.395493 -0.084273
H 1.569967 1.796328 0.633829
9
Time step 594
C -1.091269 0.054946 -0.242569
F -0.835189 0.137765 -1.524680
F -1.738549 1.035738 0.196950
F -1.524251 -1.106925 0.178512
S 0.818658 -0.140577 0.271119
O 1.140401 -0.259734 1.784382
O 1.307140 -1.088289 -0.734937
O 1.503224 1.395837 -0.084476
H 1.571851 1.791515 0.636317
9
Time step 595
C -1.090052 0.055879 -0.242084
F -0.835187 0.137905 -1.525981
F -1.738509 1.036518 0.197346
F -1.523655 -1.107761 0.179242
S 0.818402 -0.140977 0.271660
O 1.139595 -0.259616 1.783169
O 1.307477 -1.088445 -0.734913
O 1.502407 1.396143 -0.084742
H 1.573837 1.787239 0.639808
9
Time step 596
C -1.088800 0.056800 -0.241599
F -0.835192 0.138044 -1.527289
F -1.738477 1.037308 0.197746
F -1.523065 -1.108600 0.179971
S 0.818153 -0.141374 0.272211
O 1.138781 -0.259498 1.781933
O 1.307813 -1.088599 -0.734885
O 1.501578 1.396411 -0.085070
H 1.575928 1.783483 0.644290
9
Time step 597
C -1.087513 0.057708 -0.241114
F -0.835205 0.138183 -1.528604
F -1.738450 1.038108 0.198152
F -1.522483 -1.109442 0.180698
S 0.817911 -0.141769 0.272772
O 1.137960 -0.259380 1.780675
O 1.308149 -1.088750 -0.734851
O 1.500737 1.396643 -0.085460
H 1.578128 1.780228 0.649740
9
Time step 598
C -1.086192 0.058600 -0.240632
F -0.835227 0.138323 -1.529923
F -1.738430 1.038917 0.198562
F -1.521906 -1.110285 0.181425
S 0.817676 -0.142161 0.273343
O 1.137130 -0.259263 1.779395
O 1.308483 -1.088899 -0.734812
O 1.499884 1.396839 -0.085908
H 1.580436 1.777446 0.656119
9
Time step 599
C -1.084837 0.059475 -0.240152
F -0.835258 0.138462 -1.531247
F -1.738417 1.039734 0.198977
F -1.521335 -1.111127 0.182150
S 0.817448 -0.142551 0.273924
O 1.136291 -0.259145 1.778095
O 1.308816 -1.089045 -0.734767
O 1.499020 1.397002 -0.086412
H 1.582851 1.775107 0.663380
9
Time step 600
C -1.083447 0.060332 -0.239675
F -0.835297 0.138603 -1.532574
F -1.738410 1.040559 0.199396
F -1.520771 -1.111969 0.182874
S 0.817227 -0.142938 0.274512
O 1.135445 -0.259028 1.776775
O 1.309147 -1.089188 -0.734716
O 1.498143 1.397132 -0.086968
H 1.585368 1.773176 0.671468
9
Time step 601
C -1.082025 0.061171 -0.239198
F -0.835345 0.138744 -1.533905
F -1.738411 1.041393 0.199820
F -1.520211 -1.112810 0.183595
S 0.817014 -0.143321 0.275108
O 1.134590 -0.258911 1.775436
O 1.309477 -1.089328 -0.734659
O 1.497255 1.397232 -0.087572
H 1.587985 1.771618 0.680320
9
Time step 602
C -1.080573 0.061991 -0.238722
F -0.835400 0.138885 -1.535240
F -1.738418 1.042236 0.200249
F -1.519656 -1.113650 0.184314
S 0.816807 -0.143701 0.275712
O 1.133727 -0.258795 1.774078
O 1.309806 -1.089466 -0.734596
O 1.496356 1.397303 -0.088220
H 1.590694 1.770396 0.689870
9
Time step 603
C -1.079093 0.062794 -0.238247
F -0.835461 0.139025 -1.536578
F -1.738431 1.043089 0.200683
F -1.519106 -1.114490 0.185030
S 0.816607 -0.144077 0.276322
O 1.132857 -0.258679 1.772702
O 1.310133 -1.089600 -0.734527
O 1.495447 1.397348 -0.088908
H 1.593491 1.769473 0.700049
9
Time step 604
C -1.077587 0.063583 -0.237773
F -0.835529 0.139165 -1.537919
F -1.738451 1.043951 0.201122
F -1.518559 -1.115331 0.185744
S 0.816414 -0.144449 0.276939
O 1.131979 -0.258565 1.771309
O 1.310460 -1.089731 -0.734452
O 1.494528 1.397367 -0.089631
H 1.596366 1.768811 0.710786
9
Time step 605
C -1.076055 0.064357 -0.237299
F -0.835602 0.139303 -1.539264
F -1.738477 1.044822 0.201565
F -1.518016 -1.116173 0.186457
S 0.816227 -0.144817 0.277562
O 1.131094 -0.258452 1.769897
O 1.310785 -1.089859 -0.734372
O 1.493599 1.397365 -0.090384
H 1.599313 1.768375 0.722008
9
Time step 606
C -1.074496 0.065118 -0.236827
F -0.835682 0.139440 -1.540612
F -1.738508 1.045702 0.202013
F -1.517478 -1.117016 0.187167
S 0.816046 -0.145181 0.278191
O 1.130203 -0.258340 1.768469
O 1.311109 -1.089983 -0.734285
O 1.492662 1.397343 -0.091161
H 1.602323 1.768127 0.733641
9
Time step 607
C -1.072907 0.065866 -0.236358
F -0.835768 0.139576 -1.541963
F -1.738547 1.046589 0.202466
F -1.516945 -1.117859 0.187876
S 0.815872 -0.145541 0.278826
O 1.129304 -0.258230 1.767023
O 1.311430 -1.090103 -0.734192
O 1.491715 1.397303 -0.091960
H 1.605388 1.768033 0.745610
9
Time step 608
C -1.071285 0.066599 -0.235891
F -0.835863 0.139713 -1.543315
F -1.738591 1.047485 0.202922
F -1.516417 -1.118703 0.188582
S 0.815705 -0.145898 0.279468
O 1.128399 -0.258119 1.765561
O 1.311750 -1.090220 -0.734093
O 1.490761 1.397248 -0.092774
H 1.608500 1.768060 0.757841
9
Time step 609
C -1.069629 0.067316 -0.235429
F -0.835965 0.139849 -1.544670
F -1.738642 1.048387 0.203382
F -1.515896 -1.119546 0.189286
S 0.815545 -0.146251 0.280116
O 1.127487 -0.258010 1.764082
O 1.312066 -1.090332 -0.733988
O 1.489799 1.397180 -0.093601
H 1.611649 1.768178 0.770262
9
Time step 610
C -1.067940 0.068014 -0.234970
F -0.836076 0.139985 -1.546025
F -1.738699 1.049296 0.203847
F -1.515382 -1.120387 0.189987
S 0.815393 -0.146600 0.280771
O 1.126568 -0.257901 1.762587
O 1.312379 -1.090440 -0.733876
O 1.488830 1.397099 -0.094435
H 1.614830 1.768359 0.782806
9
Time step 611
C -1.066219 0.068692 -0.234516
F -0.836195 0.140121 -1.547380
F -1.738761 1.050212 0.204317
F -1.514872 -1.121226 0.190684
S 0.815247 -0.146945 0.281430
O 1.125641 -0.257794 1.761077
O 1.312690 -1.090543 -0.733756
O 1.487854 1.397007 -0.095274
H 1.618034 1.768580 0.795411
9
Time step 612
C -1.064469 0.069350 -0.234065
F -0.836321 0.140256 -1.548735
F -1.738828 1.051135 0.204791
F -1.514367 -1.122061 0.191377
S 0.815108 -0.147286 0.282095
O 1.124707 -0.257687 1.759552
O 1.312997 -1.090640 -0.733629
O 1.486873 1.396906 -0.096113
H 1.621255 1.768818 0.808022
9
Time step 613
C -1.062691 0.069987 -0.233616
F -0.836454 0.140391 -1.550091
F -1.738900 1.052065 0.205269
F -1.513866 -1.122894 0.192066
S 0.814976 -0.147622 0.282764
O 1.123766 -0.257582 1.758012
O 1.313300 -1.090732 -0.733495
O 1.485886 1.396797 -0.096950
H 1.624485 1.769056 0.820592
9
Time step 614
C -1.060888 0.070605 -0.233169
F -0.836595 0.140526 -1.551446
F -1.738975 1.053001 0.205750
F -1.513368 -1.123723 0.192751
S 0.814850 -0.147955 0.283436
O 1.122818 -0.257478 1.756458
O 1.313600 -1.090818 -0.733352
O 1.484894 1.396680 -0.097780
H 1.627719 1.769275 0.833080
9
Time step 615
C -1.059059 0.071204 -0.232721
F -0.836742 0.140659 -1.552802
F -1.739055 1.053943 0.206234
F -1.512873 -1.124549 0.193433
S 0.814732 -0.148284 0.284111
O 1.121864 -0.257376 1.754890
O 1.313895 -1.090899 -0.733202
O 1.483897 1.396558 -0.098602
H 1.630951 1.769461 0.845446
9
Time step 616
C -1.057203 0.071786 -0.232274
F -0.836897 0.140792 -1.554158
F -1.739140 1.054893 0.206721
F -1.512383 -1.125372 0.194110
S 0.814620 -0.148610 0.284789
O 1.120903 -0.257276 1.753309
O 1.314187 -1.090975 -0.733044
O 1.482895 1.396432 -0.099412
H 1.634174 1.769601 0.857656
9
Time step 617
C -1.055320 0.072349 -0.231826
F -0.837060 0.140923 -1.555513
F -1.739228 1.055849 0.207210
F -1.511897 -1.126193 0.194784
S 0.814516 -0.148931 0.285469
O 1.119935 -0.257177 1.751717
O 1.314475 -1.091046 -0.732879
O 1.481888 1.396303 -0.100208
H 1.637382 1.769680 0.869674
9
Time step 618
C -1.053409 0.072895 -0.231379
F -0.837230 0.141053 -1.556868
F -1.739321 1.056811 0.207701
F -1.511416 -1.127010 0.195454
S 0.814419 -0.149249 0.286151
O 1.118961 -0.257080 1.750114
O 1.314760 -1.091113 -0.732706
O 1.480877 1.396172 -0.100989
H 1.640570 1.769688 0.881467
9
Time step 619
C -1.051471 0.073424 -0.230935
F -0.837408 0.141183 -1.558222
F -1.739418 1.057779 0.208196
F -1.510941 -1.127825 0.196120
S 0.814329 -0.149563 0.286834
O 1.117981 -0.256985 1.748501
O 1.315043 -1.091177 -0.732525
O 1.479863 1.396041 -0.101753
H 1.643732 1.769617 0.893001
9
Time step 620
C -1.049508 0.073934 -0.230495
F -0.837593 0.141313 -1.559573
F -1.739518 1.058752 0.208694
F -1.510470 -1.128637 0.196783
S 0.814246 -0.149873 0.287518
O 1.116994 -0.256893 1.746879
O 1.315323 -1.091237 -0.732337
O 1.478846 1.395909 -0.102498
H 1.646863 1.769457 0.904249
9
Time step 621
C -1.047522 0.074427 -0.230059
F -0.837785 0.141443 -1.560921
F -1.739621 1.059729 0.209194
F -1.510003 -1.129444 0.197442
S 0.814170 -0.150179 0.288202
O 1.116001 -0.256803 1.745249
O 1.315600 -1.091294 -0.732141
O 1.477826 1.395777 -0.103224
H 1.649957 1.769202 0.915185
9
Time step 622
C -1.045517 0.074902 -0.229626
F -0.837984 0.141573 -1.562265
F -1.739727 1.060708 0.209696
F -1.509540 -1.130245 0.198097
S 0.814100 -0.150480 0.288887
O 1.115001 -0.256715 1.743610
O 1.315876 -1.091347 -0.731937
O 1.476804 1.395644 -0.103928
H 1.653010 1.768846 0.925789
9
Time step 623
C -1.043492 0.075361 -0.229196
F -0.838190 0.141704 -1.563606
F -1.739834 1.061690 0.210199
F -1.509079 -1.131041 0.198748
S 0.814037 -0.150778 0.289571
O 1.113996 -0.256630 1.741965
O 1.316148 -1.091396 -0.731724
O 1.475781 1.395512 -0.104611
H 1.656017 1.768384 0.936045
9
Time step 624
C -1.041450 0.075805 -0.228766
F -0.838405 0.141835 -1.564944
F -1.739944 1.062672 0.210702
F -1.508620 -1.131830 0.199394
S 0.813980 -0.151071 0.290255
O 1.112986 -0.256548 1.740314
O 1.316418 -1.091442 -0.731504
O 1.474756 1.395380 -0.105269
H 1.658976 1.767810 0.945941
9
Time step 625
C -1.039391 0.076234 -0.228337
F -0.838627 0.141966 -1.566278
F -1.740055 1.063656 0.211206
F -1.508163 -1.132613 0.200036
S 0.813931 -0.151361 0.290937
O 1.111970 -0.256467 1.738657
O 1.316684 -1.091484 -0.731275
O 1.473729 1.395248 -0.105903
H 1.661882 1.767121 0.955465
9
Time step 626
C -1.037314 0.076648 -0.227909
F -0.838857 0.142097 -1.567608
F -1.740168 1.064641 0.211711
F -1.507708 -1.133390 0.200672
S 0.813889 -0.151646 0.291618
O 1.110950 -0.256388 1.736995
O 1.316946 -1.091522 -0.731038
O 1.472701 1.395115 -0.106511
H 1.664732 1.766312 0.964607
9
Time step 627
C -1.035220 0.077048 -0.227486
F -0.839095 0.142226 -1.568934
F -1.740282 1.065629 0.212216
F -1.507256 -1.134162 0.201303
S 0.813854 -0.151928 0.292298
O 1.109925 -0.256311 1.735328
O 1.317205 -1.091556 -0.730795
O 1.471670 1.394983 -0.107092
H 1.667524 1.765382 0.973353
9
Time step 628
C -1.033108 0.077433 -0.227069
F -0.839340 0.142355 -1.570255
F -1.740397 1.066618 0.212724
F -1.506806 -1.134929 0.201930
S 0.813825 -0.152204 0.292977
O 1.108895 -0.256235 1.733657
O 1.317460 -1.091588 -0.730543
O 1.470638 1.394851 -0.107645
H 1.670254 1.764331 0.981691
9
Time step 629
C -1.030978 0.077802 -0.226661
F -0.839592 0.142483 -1.571571
F -1.740513 1.067610 0.213234
F -1.506359 -1.135690 0.202554
S 0.813804 -0.152475 0.293654
O 1.107860 -0.256162 1.731982
O 1.317712 -1.091617 -0.730285
O 1.469604 1.394719 -0.108170
H 1.672920 1.763159 0.989606
9
Time step 630
C -1.028832 0.078155 -0.226263
F -0.839849 0.142611 -1.572880
F -1.740629 1.068605 0.213747
F -1.505915 -1.136446 0.203174
S 0.813789 -0.152740 0.294330
O 1.106821 -0.256092 1.730303
O 1.317961 -1.091643 -0.730021
O 1.468568 1.394587 -0.108666
H 1.675519 1.761868 0.997087
9
Time step 631
C -1.026671 0.078490 -0.225873
F -0.840113 0.142740 -1.574183
F -1.740746 1.069601 0.214262
F -1.505474 -1.137196 0.203790
S 0.813780 -0.153000 0.295004
O 1.105776 -0.256025 1.728620
O 1.318207 -1.091667 -0.729749
O 1.467530 1.394456 -0.109134
H 1.678049 1.760459 1.004123
9
Time step 632
C -1.024495 0.078808 -0.225492
F -0.840382 0.142868 -1.575479
F -1.740864 1.070599 0.214778
F -1.505035 -1.137939 0.204402
S 0.813779 -0.153254 0.295675
O 1.104725 -0.255962 1.726935
O 1.318451 -1.091688 -0.729470
O 1.466491 1.394325 -0.109572
H 1.680506 1.758931 1.010706
9
Time step 633
C -1.022305 0.079109 -0.225118
F -0.840658 0.142997 -1.576769
F -1.740981 1.071597 0.215296
F -1.504599 -1.138675 0.205010
S 0.813784 -0.153503 0.296344
O 1.103671 -0.255902 1.725248
O 1.318692 -1.091707 -0.729183
O 1.465450 1.394195 -0.109981
H 1.682891 1.757285 1.016831
9
Time step 634
C -1.020104 0.079393 -0.224748
F -0.840941 0.143126 -1.578052
F -1.741097 1.072595 0.215814
F -1.504164 -1.139403 0.205614
S 0.813795 -0.153748 0.297008
O 1.102611 -0.255846 1.723561
O 1.318930 -1.091722 -0.728888
O 1.464408 1.394066 -0.110359
H 1.685203 1.755520 1.022496
9
Time step 635
C -1.017890 0.079661 -0.224384
F -0.841229 0.143255 -1.579328
F -1.741212 1.073593 0.216334
F -1.503730 -1.140122 0.206212
S 0.813813 -0.153988 0.297667
O 1.101547 -0.255792 1.721874
O 1.319165 -1.091734 -0.728584
O 1.463365 1.393938 -0.110707
H 1.687442 1.753634 1.027699
9
Time step 636
C -1.015665 0.079915 -0.224024
F -0.841524 0.143384 -1.580598
F -1.741326 1.074590 0.216854
F -1.503297 -1.140833 0.206806
S 0.813837 -0.154226 0.298319
O 1.100478 -0.255740 1.720189
O 1.319395 -1.091741 -0.728270
O 1.462321 1.393812 -0.111023
H 1.689607 1.751626 1.032439
9
Time step 637
C -1.013429 0.080154 -0.223670
F -0.841825 0.143512 -1.581859
F -1.741440 1.075586 0.217376
F -1.502865 -1.141535 0.207395
S 0.813867 -0.154461 0.298962
O 1.099405 -0.255690 1.718507
O 1.319622 -1.091743 -0.727945
O 1.461277 1.393688 -0.111307
H 1.691699 1.749496 1.036715
9
Time step 638
C -1.011181 0.080380 -0.223322
F -0.842132 0.143639 -1.583113
F -1.741553 1.076580 0.217897
F -1.502434 -1.142228 0.207981
S 0.813904 -0.154694 0.299596
O 1.098327 -0.255642 1.716830
O 1.319845 -1.091740 -0.727610
O 1.460232 1.393565 -0.111558
H 1.693717 1.747243 1.040526
9
Time step 639
C -1.008925 0.080593 -0.222980
F -0.842445 0.143766 -1.584358
F -1.741664 1.077572 0.218419
F -1.502004 -1.142913 0.208562
S 0.813947 -0.154923 0.300218
O 1.097245 -0.255595 1.715158
O 1.320064 -1.091731 -0.727264
O 1.459187 1.393443 -0.111777
H 1.695659 1.744869 1.043869
9
Time step 640
C -1.006660 0.080792 -0.222643
F -0.842763 0.143892 -1.585595
F -1.741774 1.078562 0.218941
F -1.501576 -1.143589 0.209139
S 0.813996 -0.155148 0.300830
O 1.096159 -0.255552 1.713494
O 1.320278 -1.091718 -0.726906
O 1.458142 1.393321 -0.111962
H 1.697523 1.742375 1.046740
9
Time step 641
C -1.004390 0.080975 -0.222312
F -0.843088 0.144018 -1.586822
F -1.741881 1.079550 0.219463
F -1.501148 -1.144256 0.209711
S 0.814052 -0.155368 0.301430
O 1.095070 -0.255513 1.711838
O 1.320489 -1.091699 -0.726538
O 1.457097 1.393199 -0.112116
H 1.699305 1.739762 1.049138
9
Time step 642
C -1.002116 0.081141 -0.221984
F -0.843418 0.144143 -1.588040
F -1.741984 1.080535 0.219985
F -1.500720 -1.144914 0.210277
S 0.814114 -0.155582 0.302019
O 1.093979 -0.255477 1.710192
O 1.320696 -1.091675 -0.726159
O 1.456053 1.393077 -0.112237
H 1.701004 1.737034 1.051061
9
Time step 643
C -0.999839 0.081290 -0.221662
F -0.843755 0.144268 -1.589250
F -1.742082 1.081518 0.220505
F -1.500293 -1.145561 0.210837
S 0.814182 -0.155790 0.302597
O 1.092885 -0.255447 1.708556
O 1.320899 -1.091647 -0.725769
O 1.455009 1.392955 -0.112327
H 1.702616 1.734194 1.052508
9
Time step 644
C -0.997560 0.081421 -0.221343
F -0.844099 0.144393 -1.590451
F -1.742176 1.082497 0.221025
F -1.499867 -1.146198 0.211391
S 0.814255 -0.155992 0.303164
O 1.091789 -0.255422 1.706932
O 1.321097 -1.091613 -0.725370
O 1.453966 1.392831 -0.112385
H 1.704141 1.731245 1.053479
9
Time step 645
C -0.995276 0.081535 -0.221028
F -0.844450 0.144518 -1.591643
F -1.742266 1.083473 0.221543
F -1.499440 -1.146824 0.211939
S 0.814334 -0.156187 0.303721
O 1.090692 -0.255401 1.705320
O 1.321292 -1.091575 -0.724961
O 1.452924 1.392707 -0.112411
H 1.705577 1.728193 1.053974
9
Time step 646
C -0.992988 0.081633 -0.220717
F -0.844807 0.144643 -1.592826
F -1.742352 1.084444 0.222059
F -1.499014 -1.147441 0.212481
S 0.814418 -0.156377 0.304267
O 1.089593 -0.255385 1.703719
O 1.321482 -1.091532 -0.724543
O 1.451884 1.392581 -0.112406
H 1.706924 1.725043 1.053996
9
Time step 647
C -0.990694 0.081717 -0.220411
F -0.845172 0.144769 -1.593999
F -1.742434 1.085411 0.222573
F -1.498589 -1.148047 0.213017
S 0.814508 -0.156561 0.304801
O 1.088492 -0.255373 1.702130
O 1.321667 -1.091484 -0.724115
O 1.450846 1.392454 -0.112368
H 1.708184 1.721799 1.053544
9
Time step 648
C -0.988395 0.081789 -0.220111
F -0.845543 0.144894 -1.595163
F -1.742514 1.086373 0.223085
F -1.498164 -1.148644 0.213548
S 0.814603 -0.156741 0.305324
O 1.087389 -0.255365 1.700554
O 1.321848 -1.091430 -0.723678
O 1.449810 1.392325 -0.112298
H 1.709356 1.718466 1.052619
9
Time step 649
C -0.986092 0.081849 -0.219816
F -0.845920 0.145018 -1.596315
F -1.742589 1.087331 0.223596
F -1.497740 -1.149232 0.214073
S 0.814706 -0.156914 0.305834
O 1.086283 -0.255361 1.698991
O 1.322023 -1.091373 -0.723233
O 1.448774 1.392194 -0.112196
H 1.710442 1.715046 1.051222
9
Time step 650
C -0.983788 0.081898 -0.219528
F -0.846303 0.145140 -1.597457
F -1.742660 1.088284 0.224106
F -1.497316 -1.149811 0.214593
S 0.814814 -0.157082 0.306332
O 1.085174 -0.255361 1.697443
O 1.322194 -1.091310 -0.722779
O 1.447739 1.392062 -0.112061
H 1.711441 1.711543 1.049353
9
Time step 651
C -0.981483 0.081936 -0.219247
F -0.846693 0.145262 -1.598587
F -1.742725 1.089233 0.224614
F -1.496891 -1.150381 0.215106
S 0.814928 -0.157244 0.306817
O 1.084063 -0.255366 1.695910
O 1.322359 -1.091244 -0.722317
O 1.446705 1.391927 -0.111895
H 1.712353 1.707957 1.047011
9
Time step 652
C -0.979179 0.081961 -0.218974
F -0.847088 0.145382 -1.599705
F -1.742785 1.090177 0.225121
F -1.496466 -1.150940 0.215613
S 0.815049 -0.157400 0.307289
O 1.082949 -0.255376 1.694395
O 1.322520 -1.091174 -0.721847
O 1.445671 1.391791 -0.111696
H 1.713177 1.704287 1.044198
9
Time step 653
C -0.976876 0.081974 -0.218709
F -0.847488 0.145502 -1.600811
F -1.742838 1.091116 0.225627
F -1.496041 -1.151490 0.216114
S 0.815176 -0.157550 0.307746
O 1.081834 -0.255391 1.692897
O 1.322675 -1.091101 -0.721368
O 1.444638 1.391654 -0.111465
H 1.713913 1.700533 1.040911
9
Time step 654
C -0.974576 0.081973 -0.218454
F -0.847893 0.145621 -1.601905
F -1.742886 1.092050 0.226131
F -1.495615 -1.152029 0.216610
S 0.815308 -0.157694 0.308189
O 1.080717 -0.255410 1.691417
O 1.322826 -1.091023 -0.720881
O 1.443605 1.391516 -0.111202
H 1.714558 1.696696 1.037154
9
Time step 655
C -0.972278 0.081959 -0.218206
F -0.848304 0.145741 -1.602987
F -1.742930 1.092978 0.226633
F -1.495189 -1.152556 0.217101
S 0.815447 -0.157835 0.308617
O 1.079599 -0.255433 1.689957
O 1.322973 -1.090941 -0.720385
O 1.442573 1.391377 -0.110906
H 1.715114 1.692778 1.032925
9
Time step 656
C -0.969984 0.081934 -0.217966
F -0.848719 0.145860 -1.604057
F -1.742968 1.093900 0.227133
F -1.494763 -1.153074 0.217587
S 0.815592 -0.157971 0.309029
O 1.078480 -0.255459 1.688517
O 1.323114 -1.090855 -0.719880
O 1.441544 1.391239 -0.110579
H 1.715579 1.688780 1.028230
9
Time step 657
C -0.967696 0.081899 -0.217733
F -0.849138 0.145980 -1.605115
F -1.743002 1.094816 0.227631
F -1.494336 -1.153581 0.218068
S 0.815742 -0.158104 0.309424
O 1.077360 -0.255490 1.687097
O 1.323251 -1.090765 -0.719365
O 1.440516 1.391100 -0.110218
H 1.715954 1.684706 1.023070
9
Time step 658
C -0.965416 0.081855 -0.217508
F -0.849561 0.146099 -1.606162
F -1.743029 1.095725 0.228127
F -1.493909 -1.154078 0.218545
S 0.815899 -0.158233 0.309801
O 1.076240 -0.255524 1.685699
O 1.323385 -1.090670 -0.718840
O 1.439490 1.390960 -0.109826
H 1.716239 1.680563 1.017452
9
Time step 659
C -0.963147 0.081803 -0.217292
F -0.849987 0.146218 -1.607196
F -1.743049 1.096627 0.228623
F -1.493481 -1.154564 0.219016
S 0.816061 -0.158357 0.310159
O 1.075118 -0.255563 1.684324
O 1.323514 -1.090573 -0.718305
O 1.438465 1.390818 -0.109403
H 1.716437 1.676354 1.011382
9
Time step 660
C -0.960891 0.081744 -0.217085
F -0.850417 0.146336 -1.608217
F -1.743061 1.097520 0.229117
F -1.493050 -1.155040 0.219483
S 0.816228 -0.158475 0.310499
O 1.073996 -0.255607 1.682974
O 1.323640 -1.090471 -0.717760
O 1.437442 1.390675 -0.108949
H 1.716547 1.672085 1.004866
9
Time step 661
C -0.958647 0.081675 -0.216888
F -0.850852 0.146454 -1.609225
F -1.743064 1.098406 0.229610
F -1.492618 -1.155505 0.219944
S 0.816400 -0.158587 0.310819
O 1.072873 -0.255656 1.681650
O 1.323763 -1.090367 -0.717206
O 1.436419 1.390529 -0.108464
H 1.716571 1.667762 0.997910
9
Time step 662
C -0.956413 0.081598 -0.216702
F -0.851291 0.146571 -1.610219
F -1.743059 1.099282 0.230100
F -1.492184 -1.155957 0.220399
S 0.816576 -0.158694 0.311119
O 1.071750 -0.255712 1.680354
O 1.323883 -1.090260 -0.716642
O 1.435397 1.390380 -0.107950
H 1.716510 1.663386 0.990521
9
Time step 663
C -0.954190 0.081511 -0.216526
F -0.851735 0.146688 -1.611197
F -1.743045 1.100150 0.230588
F -1.491749 -1.156396 0.220848
S 0.816756 -0.158794 0.311399
O 1.070628 -0.255773 1.679088
O 1.324001 -1.090150 -0.716070
O 1.434376 1.390227 -0.107405
H 1.716367 1.658962 0.982704
9
Time step 664
C -0.951977 0.081413 -0.216360
F -0.852185 0.146804 -1.612161
F -1.743023 1.101009 0.231073
F -1.491312 -1.156821 0.221291
S 0.816941 -0.158887 0.311658
O 1.069507 -0.255840 1.677852
O 1.324117 -1.090038 -0.715489
O 1.433356 1.390071 -0.106831
H 1.716141 1.654491 0.974466
9
Time step 665
C -0.949776 0.081304 -0.216201
F -0.852639 0.146920 -1.613109
F -1.742993 1.101859 0.231555
F -1.490874 -1.157233 0.221728
S 0.817129 -0.158975 0.311895
O 1.068388 -0.255912 1.676648
O 1.324231 -1.089923 -0.714900
O 1.432337 1.389912 -0.106227
H 1.715836 1.649976 0.965812
9
Time step 666
C -0.947589 0.081184 -0.216050
F -0.853098 0.147035 -1.614043
F -1.742955 1.102701 0.232033
F -1.490434 -1.157633 0.222158
S 0.817321 -0.159057 0.312110
O 1.067271 -0.255989 1.675474
O 1.324343 -1.089805 -0.714303
O 1.431319 1.389749 -0.105593
H 1.715453 1.645421 0.956753
9
Time step 667
C -0.945419 0.081054 -0.215906
F -0.853560 0.147150 -1.614962
F -1.742907 1.103535 0.232508
F -1.489991 -1.158020 0.222582
S 0.817516 -0.159133 0.312303
O 1.066156 -0.256071 1.674331
O 1.324452 -1.089685 -0.713698
O 1.430302 1.389583 -0.104931
H 1.714995 1.640830 0.947297
9
Time step 668
C -0.943267 0.080912 -0.215769
F -0.854024 0.147265 -1.615868
F -1.742851 1.104362 0.232981
F -1.489546 -1.158396 0.223001
S 0.817714 -0.159202 0.312475
O 1.065043 -0.256159 1.673219
O 1.324560 -1.089563 -0.713083
O 1.429285 1.389412 -0.104241
H 1.714467 1.636210 0.937461
9
Time step 669
C -0.941133 0.080759 -0.215642
F -0.854492 0.147380 -1.616760
F -1.742785 1.105181 0.233451
F -1.489097 -1.158760 0.223414
S 0.817916 -0.159265 0.312624
O 1.063931 -0.256253 1.672138
O 1.324664 -1.089438 -0.712460
O 1.428270 1.389237 -0.103525
H 1.713872 1.631569 0.927262
9
Time step 670
C -0.939015 0.080597 -0.215524
F -0.854963 0.147495 -1.617637
F -1.742710 1.105991 0.233918
F -1.488644 -1.159111 0.223822
S 0.818122 -0.159321 0.312752
O 1.062820 -0.256354 1.671087
O 1.324765 -1.089311 -0.711828
O 1.427254 1.389058 -0.102784
H 1.713215 1.626916 0.916721
9
Time step 671
C -0.936911 0.080425 -0.215417
F -0.855439 0.147608 -1.618500
F -1.742626 1.106792 0.234382
F -1.488189 -1.159450 0.224224
S 0.818332 -0.159372 0.312859
O 1.061710 -0.256460 1.670069
O 1.324861 -1.089181 -0.711186
O 1.426239 1.388874 -0.102020
H 1.712503 1.622261 0.905863
9
Time step 672
C -0.934820 0.080244 -0.215320
F -0.855920 0.147722 -1.619348
F -1.742533 1.107583 0.234844
F -1.487732 -1.159774 0.224619
S 0.818547 -0.159418 0.312943
O 1.060600 -0.256572 1.669082
O 1.324953 -1.089047 -0.710535
O 1.425223 1.388684 -0.101234
H 1.711742 1.617614 0.894716
9
Time step 673
C -0.932743 0.080054 -0.215232
F -0.856406 0.147834 -1.620180
F -1.742430 1.108363 0.235302
F -1.487272 -1.160085 0.225007
S 0.818768 -0.159461 0.313005
O 1.059491 -0.256688 1.668129
O 1.325040 -1.088909 -0.709875
O 1.424206 1.388491 -0.100428
H 1.710939 1.612986 0.883309
9
Time step 674
C -0.930681 0.079855 -0.215153
F -0.856898 0.147945 -1.620997
F -1.742316 1.109132 0.235757
F -1.486810 -1.160381 0.225387
S 0.818994 -0.159500 0.313043
O 1.058382 -0.256808 1.667211
O 1.325122 -1.088767 -0.709205
O 1.423189 1.388292 -0.099603
H 1.710100 1.608384 0.871672
9
Time step 675
C -0.928639 0.079647 -0.215080
F -0.857395 0.148055 -1.621800
F -1.742192 1.109891 0.236208
F -1.486346 -1.160664 0.225761
S 0.819225 -0.159537 0.313056
O 1.057274 -0.256931 1.666329
O 1.325198 -1.088620 -0.708527
O 1.422170 1.388089 -0.098761
H 1.709236 1.603819 0.859835
9
Time step 676
C -0.926618 0.079429 -0.215015
F -0.857895 0.148166 -1.622588
F -1.742055 1.110640 0.236656
F -1.485879 -1.160935 0.226128
S 0.819461 -0.159571 0.313044
O 1.056167 -0.257056 1.665484
O 1.325270 -1.088469 -0.707839
O 1.421149 1.387881 -0.097905
H 1.708354 1.599300 0.847833
9
Time step 677
C -0.924619 0.079203 -0.214957
F -0.858398 0.148276 -1.623361
F -1.741907 1.111379 0.237099
F -1.485408 -1.161193 0.226490
S 0.819702 -0.159603 0.313006
O 1.055062 -0.257186 1.664677
O 1.325336 -1.088314 -0.707142
O 1.420127 1.387667 -0.097036
H 1.707466 1.594836 0.835700
9
Time step 678
C -0.922641 0.078969 -0.214908
F -0.858905 0.148387 -1.624121
F -1.741747 1.112108 0.237539
F -1.484935 -1.161439 0.226846
S 0.819946 -0.159631 0.312943
O 1.053958 -0.257321 1.663909
O 1.325398 -1.088155 -0.706435
O 1.419102 1.387447 -0.096158
H 1.706584 1.590439 0.823476
9
Time step 679
C -0.920682 0.078728 -0.214868
F -0.859415 0.148497 -1.624865
F -1.741578 1.112826 0.237975
F -1.484458 -1.161673 0.227196
S 0.820194 -0.159655 0.312853
O 1.052856 -0.257461 1.663181
O 1.325454 -1.087992 -0.705720
O 1.418074 1.387220 -0.095273
H 1.705725 1.586123 0.811205
9
Time step 680
C -0.918741 0.078483 -0.214838
F -0.859929 0.148606 -1.625593
F -1.741399 1.113534 0.238408
F -1.483979 -1.161895 0.227541
S 0.820446 -0.159675 0.312738
O 1.051757 -0.257609 1.662491
O 1.325506 -1.087825 -0.704996
O 1.417042 1.386982 -0.094385
H 1.704904 1.581903 0.798938
9
Time step 681
C -0.916819 0.078234 -0.214819
F -0.860446 0.148713 -1.626306
F -1.741211 1.114230 0.238837
F -1.483498 -1.162105 0.227879
S 0.820702 -0.159688 0.312598
O 1.050660 -0.257762 1.661841
O 1.325554 -1.087654 -0.704264
O 1.416004 1.386734 -0.093497
H 1.704142 1.577796 0.786734
9
Time step 682
C -0.914918 0.077982 -0.214811
F -0.860966 0.148817 -1.627001
F -1.741013 1.114915 0.239263
F -1.483013 -1.162301 0.228210
S 0.820962 -0.159696 0.312433
O 1.049565 -0.257923 1.661230
O 1.325599 -1.087480 -0.703525
O 1.414960 1.386473 -0.092614
H 1.703461 1.573820 0.774655
9
Time step 683
C -0.913042 0.077726 -0.214815
F -0.861489 0.148918 -1.627679
F -1.740804 1.115588 0.239686
F -1.482526 -1.162484 0.228535
S 0.821226 -0.159698 0.312242
O 1.048472 -0.258090 1.660657
O 1.325640 -1.087303 -0.702778
O 1.413908 1.386197 -0.091738
H 1.702886 1.569996 0.762771
9
Time step 684
C -0.911196 0.077465 -0.214831
F -0.862013 0.149017 -1.628340
F -1.740583 1.116250 0.240106
F -1.482035 -1.162654 0.228854
S 0.821493 -0.159694 0.312026
O 1.047381 -0.258263 1.660124
O 1.325679 -1.087123 -0.702025
O 1.412845 1.385905 -0.090875
H 1.702443 1.566341 0.751153
9
Time step 685
C -0.909382 0.077197 -0.214859
F -0.862540 0.149115 -1.628983
F -1.740348 1.116899 0.240521
F -1.481540 -1.162809 0.229167
S 0.821763 -0.159683 0.311785
O 1.046292 -0.258442 1.659631
O 1.325717 -1.086941 -0.701266
O 1.411771 1.385597 -0.090029
H 1.702163 1.562874 0.739874
9
Time step 686
C -0.907600 0.076920 -0.214901
F -0.863068 0.149214 -1.629608
F -1.740099 1.117537 0.240933
F -1.481042 -1.162952 0.229475
S 0.822037 -0.159666 0.311519
O 1.045206 -0.258628 1.659179
O 1.325753 -1.086758 -0.700501
O 1.410682 1.385271 -0.089205
H 1.702076 1.559611 0.729007
9
Time step 687
C -0.905848 0.076635 -0.214957
F -0.863599 0.149313 -1.630216
F -1.739837 1.118163 0.241339
F -1.480539 -1.163081 0.229778
S 0.822312 -0.159641 0.311229
O 1.044123 -0.258819 1.658768
O 1.325789 -1.086574 -0.699732
O 1.409578 1.384928 -0.088408
H 1.702216 1.556566 0.718627
9
Time step 688
C -0.904125 0.076342 -0.215025
F -0.864132 0.149412 -1.630806
F -1.739562 1.118778 0.241742
F -1.480032 -1.163196 0.230075
S 0.822589 -0.159609 0.310914
O 1.043044 -0.259018 1.658399
O 1.325824 -1.086391 -0.698958
O 1.408455 1.384566 -0.087643
H 1.702615 1.553754 0.708806
9
Time step 689
C -0.902429 0.076041 -0.215105
F -0.864669 0.149511 -1.631379
F -1.739276 1.119380 0.242140
F -1.479522 -1.163297 0.230366
S 0.822869 -0.159571 0.310575
O 1.041967 -0.259222 1.658072
O 1.325859 -1.086208 -0.698181
O 1.407314 1.384185 -0.086915
H 1.703305 1.551188 0.699619
9
Time step 690
C -0.900760 0.075734 -0.215196
F -0.865208 0.149609 -1.631935
F -1.738979 1.119972 0.242534
F -1.479007 -1.163385 0.230650
S 0.823150 -0.159525 0.310214
O 1.040894 -0.259433 1.657785
O 1.325893 -1.086027 -0.697400
O 1.406151 1.383785 -0.086228
H 1.704318 1.548883 0.691138
9
Time step 691
C -0.899120 0.075422 -0.215297
F -0.865749 0.149705 -1.632475
F -1.738670 1.120551 0.242924
F -1.478489 -1.163458 0.230926
S 0.823433 -0.159474 0.309829
O 1.039824 -0.259650 1.657539
O 1.325926 -1.085846 -0.696615
O 1.404965 1.383365 -0.085587
H 1.705682 1.546853 0.683434
9
Time step 692
C -0.897511 0.075105 -0.215406
F -0.866291 0.149799 -1.632997
F -1.738349 1.121119 0.243310
F -1.477966 -1.163517 0.231195
S 0.823719 -0.159418 0.309420
O 1.038756 -0.259872 1.657333
O 1.325959 -1.085665 -0.695827
O 1.403754 1.382926 -0.084996
H 1.707425 1.545113 0.676575
9
Time step 693
C -0.895935 0.074783 -0.215525
F -0.866835 0.149891 -1.633502
F -1.738015 1.121675 0.243693
F -1.477439 -1.163562 0.231457
S 0.824007 -0.159357 0.308988
O 1.037691 -0.260098 1.657166
O 1.325990 -1.085485 -0.695035
O 1.402518 1.382466 -0.084459
H 1.709572 1.543677 0.670621
9
Time step 694
C -0.894391 0.074456 -0.215653
F -0.867381 0.149983 -1.633990
F -1.737669 1.122218 0.244070
F -1.476907 -1.163593 0.231713
S 0.824298 -0.159293 0.308531
O 1.036628 -0.260329 1.657038
O 1.326020 -1.085305 -0.694238
O 1.401253 1.381986 -0.083977
H 1.712144 1.542558 0.665621
9
Time step 695
C -0.892880 0.074126 -0.215793
F -0.867928 0.150074 -1.634460
F -1.737309 1.122748 0.244444
F -1.476371 -1.163610 0.231964
S 0.824593 -0.159224 0.308050
O 1.035568 -0.260564 1.656948
O 1.326048 -1.085124 -0.693436
O 1.399960 1.381484 -0.083553
H 1.715162 1.541764 0.661615
9
Time step 696
C -0.891401 0.073792 -0.215945
F -0.868477 0.150164 -1.634913
F -1.736937 1.123264 0.244812
F -1.475831 -1.163613 0.232208
S 0.824890 -0.159152 0.307544
O 1.034509 -0.260803 1.656898
O 1.326074 -1.084943 -0.692628
O 1.398637 1.380960 -0.083188
H 1.718642 1.541299 0.658623
9
Time step 697
C -0.889953 0.073456 -0.216111
F -0.869028 0.150253 -1.635347
F -1.736551 1.123768 0.245177
F -1.475286 -1.163603 0.232448
S 0.825190 -0.159075 0.307014
O 1.033453 -0.261047 1.656887
O 1.326097 -1.084763 -0.691815
O 1.397284 1.380415 -0.082883
H 1.722598 1.541163 0.656655
9
Time step 698
C -0.888537 0.073117 -0.216290
F -0.869582 0.150342 -1.635764
F -1.736153 1.124258 0.245538
F -1.474735 -1.163580 0.232681
S 0.825493 -0.158993 0.306459
O 1.032401 -0.261296 1.656918
O 1.326117 -1.084583 -0.690997
O 1.395900 1.379847 -0.082638
H 1.727034 1.541350 0.655702
9
Time step 699
C -0.887155 0.072775 -0.216484
F -0.870138 0.150428 -1.636165
F -1.735741 1.124735 0.245895
F -1.474180 -1.163544 0.232908
S 0.825798 -0.158905 0.305881
O 1.031351 -0.261549 1.656989
O 1.326136 -1.084405 -0.690175
O 1.394485 1.379258 -0.082450
H 1.731954 1.541852 0.655743
9
Time step 700
C -0.885808 0.072430 -0.216689
F -0.870696 0.150513 -1.636550
F -1.735315 1.125199 0.246248
F -1.473619 -1.163494 0.233128
S 0.826106 -0.158810 0.305280
O 1.030304 -0.261807 1.657102
O 1.326153 -1.084228 -0.689349
O 1.393041 1.378647 -0.082319
H 1.737350 1.542659 0.656741
9
Time step 701
C -0.884496 0.072081 -0.216906
F -0.871258 0.150597 -1.636920
F -1.734876 1.125650 0.246597
F -1.473054 -1.163430 0.233343
S 0.826417 -0.158710 0.304656
O 1.029260 -0.262071 1.657256
O 1.326169 -1.084053 -0.688521
O 1.391567 1.378016 -0.082242
H 1.743212 1.543760 0.658653
9
Time step 702
C -0.883217 0.071726 -0.217132
F -0.871822 0.150680 -1.637273
F -1.734423 1.126088 0.246940
F -1.472484 -1.163352 0.233551
S 0.826731 -0.158604 0.304009
O 1.028218 -0.262339 1.657449
O 1.326184 -1.083879 -0.687690
O 1.390066 1.377365 -0.082214
H 1.749521 1.545145 0.661424
9
Time step 703
C -0.881971 0.071364 -0.217369
F -0.872389 0.150763 -1.637610
F -1.733956 1.126513 0.247279
F -1.471911 -1.163259 0.233753
S 0.827047 -0.158491 0.303340
O 1.027178 -0.262612 1.657681
O 1.326199 -1.083707 -0.686857
O 1.388538 1.376697 -0.082233
H 1.756257 1.546802 0.664994
9
Time step 704
C -0.880757 0.070996 -0.217615
F -0.872959 0.150844 -1.637929
F -1.733476 1.126925 0.247612
F -1.471333 -1.163152 0.233949
S 0.827365 -0.158373 0.302649
O 1.026139 -0.262891 1.657951
O 1.326215 -1.083536 -0.686021
O 1.386985 1.376010 -0.082294
H 1.763392 1.548720 0.669297
9
Time step 705
C -0.879576 0.070622 -0.217872
F -0.873532 0.150924 -1.638229
F -1.732983 1.127324 0.247940
F -1.470751 -1.163030 0.234138
S 0.827686 -0.158248 0.301938
O 1.025102 -0.263175 1.658258
O 1.326231 -1.083367 -0.685183
O 1.385409 1.375307 -0.082394
H 1.770898 1.550886 0.674264
9
Time step 706
C -0.878430 0.070245 -0.218141
F -0.874107 0.151002 -1.638511
F -1.732477 1.127710 0.248264
F -1.470164 -1.162894 0.234320
S 0.828009 -0.158117 0.301207
O 1.024066 -0.263464 1.658602
O 1.326248 -1.083201 -0.684344
O 1.383812 1.374588 -0.082528
H 1.778742 1.553284 0.679822
9
Time step 707
C -0.877322 0.069864 -0.218423
F -0.874684 0.151077 -1.638775
F -1.731956 1.128083 0.248584
F -1.469572 -1.162744 0.234494
S 0.828335 -0.157979 0.300456
O 1.023032 -0.263759 1.658981
O 1.326265 -1.083038 -0.683504
O 1.382196 1.373854 -0.082692
H 1.786890 1.555895 0.685898
9
Time step 708
C -0.876254 0.069482 -0.218718
F -0.875261 0.151151 -1.639021
F -1.731421 1.128443 0.248900
F -1.468974 -1.162581 0.234662
S 0.828663 -0.157835 0.299687
O 1.022000 -0.264060 1.659397
O 1.326284 -1.082877 -0.682664
O 1.380563 1.373105 -0.082883
H 1.795306 1.558701 0.692417
9
Time step 709
C -0.875228 0.069100 -0.219025
F -0.875839 0.151223 -1.639250
F -1.730870 1.128788 0.249212
F -1.468372 -1.162403 0.234823
S 0.828993 -0.157684 0.298900
O 1.020969 -0.264365 1.659849
O 1.326304 -1.082720 -0.681824
O 1.378916 1.372344 -0.083095
H 1.803952 1.561679 0.699307
9
Time step 710
C -0.874242 0.068718 -0.219343
F -0.876418 0.151293 -1.639462
F -1.730305 1.129120 0.249519
F -1.467764 -1.162212 0.234978
S 0.829327 -0.157526 0.298095
O 1.019940 -0.264676 1.660337
O 1.326325 -1.082566 -0.680986
O 1.377255 1.371571 -0.083325
H 1.812790 1.564809 0.706496
9
Time step 711
C -0.873295 0.068334 -0.219671
F -0.876998 0.151363 -1.639658
F -1.729726 1.129438 0.249822
F -1.467152 -1.162008 0.235126
S 0.829663 -0.157362 0.297274
O 1.018912 -0.264992 1.660861
O 1.326348 -1.082415 -0.680149
O 1.375585 1.370789 -0.083569
H 1.821783 1.568070 0.713916
9
Time step 712
C -0.872385 0.067950 -0.220009
F -0.877578 0.151431 -1.639836
F -1.729133 1.129741 0.250120
F -1.466536 -1.161789 0.235268
S 0.830002 -0.157192 0.296437
O 1.017885 -0.265313 1.661419
O 1.326373 -1.082268 -0.679314
O 1.373906 1.369997 -0.083823
H 1.830895 1.571445 0.721504
9
Time step 713
C -0.871511 0.067562 -0.220358
F -0.878160 0.151498 -1.639997
F -1.728526 1.130031 0.250413
F -1.465916 -1.161557 0.235402
S 0.830343 -0.157015 0.295583
O 1.016859 -0.265639 1.662011
O 1.326400 -1.082125 -0.678481
O 1.372222 1.369198 -0.084084
H 1.840092 1.574916 0.729202
9
Time step 714
C -0.870673 0.067172 -0.220717
F -0.878743 0.151563 -1.640139
F -1.727905 1.130308 0.250702
F -1.465291 -1.161310 0.235529
S 0.830686 -0.156832 0.294715
O 1.015833 -0.265969 1.662636
O 1.326428 -1.081986 -0.677650
O 1.370535 1.368392 -0.084347
H 1.849342 1.578468 0.736956
9
Time step 715
C -0.869871 0.066778 -0.221088
F -0.879327 0.151625 -1.640262
F -1.727271 1.130572 0.250986
F -1.464662 -1.161049 0.235649
S 0.831031 -0.156640 0.293832
O 1.014809 -0.266305 1.663292
O 1.326459 -1.081851 -0.676822
O 1.368845 1.367581 -0.084611
H 1.858617 1.582088 0.744720
9
Time step 716
C -0.869108 0.066380 -0.221471
F -0.879911 0.151686 -1.640368
F -1.726622 1.130823 0.251267
F -1.464027 -1.160774 0.235761
S 0.831378 -0.156441 0.292936
O 1.013785 -0.266646 1.663978
O 1.326491 -1.081721 -0.675997
O 1.367156 1.366764 -0.084872
H 1.867889 1.585762 0.752450
9
Time step 717
C -0.868383 0.065980 -0.221867
F -0.880496 0.151745 -1.640456
F -1.725959 1.131060 0.251543
F -1.463388 -1.160485 0.235867
S 0.831727 -0.156234 0.292028
O 1.012761 -0.266993 1.664693
O 1.326525 -1.081596 -0.675176
O 1.365469 1.365943 -0.085128
H 1.877133 1.589478 0.760108
9
Time step 718
C -0.867696 0.065579 -0.222275
F -0.881082 0.151803 -1.640526
F -1.725281 1.131282 0.251814
F -1.462745 -1.160183 0.235967
S 0.832078 -0.156019 0.291109
O 1.011739 -0.267345 1.665436
O 1.326562 -1.081477 -0.674358
O 1.363786 1.365120 -0.085378
H 1.886327 1.593222 0.767660
9
Time step 719
C -0.867047 0.065179 -0.222693
F -0.881670 0.151859 -1.640580
F -1.724588 1.131489 0.252079
F -1.462098 -1.159868 0.236060
S 0.832431 -0.155795 0.290179
O 1.010717 -0.267703 1.666206
O 1.326602 -1.081364 -0.673545
O 1.362106 1.364294 -0.085619
H 1.895449 1.596979 0.775073
9
Time step 720
C -0.866434 0.064780 -0.223122
F -0.882259 0.151915 -1.640616
F -1.723881 1.131681 0.252339
F -1.461446 -1.159540 0.236148
S 0.832787 -0.155564 0.289239
O 1.009695 -0.268067 1.667003
O 1.326644 -1.081259 -0.672736
O 1.360433 1.363468 -0.085849
H 1.904476 1.600736 0.782315
9
Time step 721
C -0.865859 0.064384 -0.223561
F -0.882849 0.151969 -1.640636
F -1.723160 1.131859 0.252592
F -1.460791 -1.159200 0.236229
S 0.833145 -0.155325 0.288289
O 1.008673 -0.268436 1.667827
O 1.326689 -1.081161 -0.671932
O 1.358766 1.362643 -0.086067
H 1.913390 1.604475 0.789357
9
Time step 722
C -0.865322 0.063990 -0.224009
F -0.883440 0.152022 -1.640638
F -1.722425 1.132023 0.252841
F -1.460130 -1.158848 0.236304
S 0.833505 -0.155078 0.287330
O 1.007652 -0.268810 1.668675
O 1.326739 -1.081073 -0.671133
O 1.357107 1.361821 -0.086272
H 1.922170 1.608185 0.796171
9
Time step 723
C -0.864824 0.063596 -0.224466
F -0.884030 0.152073 -1.640624
F -1.721677 1.132175 0.253085
F -1.459465 -1.158482 0.236373
S 0.833866 -0.154823 0.286361
O 1.006630 -0.269189 1.669549
O 1.326793 -1.080994 -0.670340
O 1.355458 1.361001 -0.086461
H 1.930798 1.611853 0.802731
9
Time step 724
C -0.864367 0.063200 -0.224934
F -0.884621 0.152122 -1.640593
F -1.720915 1.132313 0.253325
F -1.458794 -1.158103 0.236434
S 0.834229 -0.154560 0.285384
O 1.005609 -0.269573 1.670447
O 1.326853 -1.080924 -0.669553
O 1.353819 1.360186 -0.086633
H 1.939256 1.615466 0.809016
9
Time step 725
C -0.863949 0.062802 -0.225411
F -0.885213 0.152170 -1.640546
F -1.720140 1.132439 0.253561
F -1.458118 -1.157710 0.236489
S 0.834593 -0.154288 0.284399
O 1.004587 -0.269961 1.671368
O 1.326918 -1.080865 -0.668772
O 1.352192 1.359375 -0.086787
H 1.947528 1.619017 0.815006
9
Time step 726
C -0.863569 0.062399 -0.225898
F -0.885806 0.152217 -1.640482
F -1.719351 1.132551 0.253793
F -1.457438 -1.157303 0.236537
S 0.834959 -0.154008 0.283408
O 1.003566 -0.270353 1.672312
O 1.326989 -1.080817 -0.667998
O 1.350577 1.358569 -0.086922
H 1.955601 1.622499 0.820685
9
Time step 727
C -0.863226 0.061994 -0.226395
F -0.886402 0.152264 -1.640403
F -1.718547 1.132648 0.254019
F -1.456754 -1.156881 0.236578
S 0.835326 -0.153720 0.282410
O 1.002544 -0.270749 1.673277
O 1.327066 -1.080779 -0.667232
O 1.348975 1.357767 -0.087037
H 1.963463 1.625904 0.826043
9
Time step 728
C -0.862919 0.061587 -0.226901
F -0.887000 0.152310 -1.640306
F -1.717731 1.132731 0.254240
F -1.456065 -1.156445 0.236612
S 0.835695 -0.153423 0.281408
O 1.001522 -0.271148 1.674263
O 1.327149 -1.080751 -0.666473
O 1.347387 1.356970 -0.087133
H 1.971105 1.629228 0.831069
9
Time step 729
C -0.862650 0.061181 -0.227415
F -0.887601 0.152354 -1.640192
F -1.716900 1.132799 0.254455
F -1.455372 -1.155995 0.236638
S 0.836066 -0.153118 0.280401
O 1.000499 -0.271551 1.675268
O 1.327238 -1.080734 -0.665722
O 1.345814 1.356179 -0.087208
H 1.978516 1.632466 0.835756
9
Time step 730
C -0.862420 0.060776 -0.227939
F -0.888202 0.152397 -1.640061
F -1.716055 1.132853 0.254664
F -1.454674 -1.155532 0.236657
S 0.836439 -0.152804 0.279391
O 0.999476 -0.271958 1.676293
O 1.327331 -1.080728 -0.664979
O 1.344256 1.355392 -0.087262
H 1.985691 1.635615 0.840098
9
Time step 731
C -0.862233 0.060374 -0.228470
F -0.888805 0.152438 -1.639913
F -1.715195 1.132892 0.254868
F -1.453971 -1.155056 0.236669
S 0.836814 -0.152481 0.278377
O 0.998452 -0.272368 1.677334
O 1.327430 -1.080732 -0.664245
O 1.342713 1.354611 -0.087295
H 1.992619 1.638672 0.844087
9
Time step 732
C -0.862089 0.059974 -0.229010
F -0.889407 0.152476 -1.639749
F -1.714320 1.132919 0.255066
F -1.453261 -1.154569 0.236673
S 0.837191 -0.152150 0.277360
O 0.997427 -0.272782 1.678394
O 1.327534 -1.080748 -0.663520
O 1.341186 1.353837 -0.087306
H 1.999294 1.641632 0.847719
9
Time step 733
C -0.861989 0.059575 -0.229559
F -0.890010 0.152513 -1.639569
F -1.713430 1.132931 0.255260
F -1.452546 -1.154068 0.236670
S 0.837569 -0.151811 0.276341
O 0.996402 -0.273199 1.679470
O 1.327645 -1.080775 -0.662805
O 1.339675 1.353069 -0.087296
H 2.005708 1.644494 0.850985
9
Time step 734
C -0.861930 0.059176 -0.230115
F -0.890613 0.152548 -1.639374
F -1.712525 1.132931 0.255449
F -1.451826 -1.153554 0.236661
S 0.837949 -0.151464 0.275320
O 0.995376 -0.273621 1.680563
O 1.327761 -1.080815 -0.662099
O 1.338181 1.352310 -0.087263
H 2.011854 1.647253 0.853879
9
Time step 735
C -0.861911 0.058778 -0.230680
F -0.891218 0.152581 -1.639165
F -1.711606 1.132915 0.255633
F -1.451101 -1.153027 0.236645
S 0.838329 -0.151107 0.274297
O 0.994351 -0.274045 1.681673
O 1.327884 -1.080867 -0.661404
O 1.336704 1.351559 -0.087208
H 2.017726 1.649906 0.856395
9
Time step 736
C -0.861929 0.058379 -0.231254
F -0.891823 0.152612 -1.638940
F -1.710673 1.132885 0.255812
F -1.450373 -1.152487 0.236622
S 0.838710 -0.150742 0.273274
O 0.993324 -0.274474 1.682798
O 1.328013 -1.080932 -0.660719
O 1.335246 1.350817 -0.087131
H 2.023318 1.652449 0.858530
9
Time step 737
C -0.861981 0.057983 -0.231836
F -0.892431 0.152642 -1.638699
F -1.709727 1.132841 0.255987
F -1.449641 -1.151933 0.236591
S 0.839093 -0.150367 0.272251
O 0.992298 -0.274906 1.683939
O 1.328149 -1.081010 -0.660044
O 1.333806 1.350083 -0.087031
H 2.028628 1.654879 0.860281
9
Time step 738
C -0.862070 0.057588 -0.232426
F -0.893039 0.152669 -1.638442
F -1.708766 1.132782 0.256157
F -1.448906 -1.151366 0.236554
S 0.839475 -0.149983 0.271228
O 0.991270 -0.275342 1.685093
O 1.328291 -1.081101 -0.659381
O 1.332384 1.349358 -0.086910
H 2.033651 1.657192 0.861649
9
Time step 739
C -0.862194 0.057197 -0.233023
F -0.893648 0.152694 -1.638169
F -1.707792 1.132708 0.256321
F -1.448168 -1.150788 0.236509
S 0.839859 -0.149591 0.270207
O 0.990240 -0.275782 1.686260
O 1.328441 -1.081204 -0.658729
O 1.330982 1.348642 -0.086767
H 2.038385 1.659384 0.862634
9
Time step 740
C -0.862358 0.056809 -0.233628
F -0.894257 0.152716 -1.637879
F -1.706803 1.132621 0.256481
F -1.447427 -1.150199 0.236456
S 0.840245 -0.149189 0.269187
O 0.989209 -0.276224 1.687438
O 1.328598 -1.081318 -0.658088
O 1.329598 1.347933 -0.086604
H 2.042827 1.661454 0.863240
9
Time step 741
C -0.862560 0.056424 -0.234239
F -0.894867 0.152736 -1.637574
F -1.705800 1.132520 0.256636
F -1.446683 -1.149598 0.236398
S 0.840631 -0.148779 0.268171
O 0.988176 -0.276669 1.688625
O 1.328762 -1.081444 -0.657460
O 1.328233 1.347234 -0.086420
H 2.046975 1.663399 0.863470
9
Time step 742
C -0.862801 0.056040 -0.234858
F -0.895478 0.152754 -1.637254
F -1.704781 1.132405 0.256785
F -1.445936 -1.148985 0.236333
S 0.841018 -0.148361 0.267159
O 0.987140 -0.277117 1.689819
O 1.328935 -1.081581 -0.656843
O 1.326887 1.346544 -0.086215
H 2.050828 1.665217 0.863325
9
Time step 743
C -0.863078 0.055658 -0.235484
F -0.896089 0.152771 -1.636920
F -1.703748 1.132277 0.256929
F -1.445185 -1.148361 0.236262
S 0.841407 -0.147935 0.266152
O 0.986103 -0.277567 1.691021
O 1.329115 -1.081731 -0.656238
O 1.325560 1.345864 -0.085990
H 2.054382 1.666908 0.862806
9
Time step 744
C -0.863391 0.055276 -0.236119
F -0.896702 0.152786 -1.636572
F -1.702702 1.132135 0.257069
F -1.444431 -1.147724 0.236184
S 0.841795 -0.147502 0.265151
O 0.985065 -0.278021 1.692228
O 1.329303 -1.081894 -0.655646
O 1.324253 1.345196 -0.085744
H 2.057638 1.668469 0.861913
9
Time step 745
C -0.863736 0.054895 -0.236761
F -0.897317 0.152799 -1.636210
F -1.701643 1.131980 0.257204
F -1.443673 -1.147074 0.236101
S 0.842183 -0.147060 0.264158
O 0.984026 -0.278477 1.693439
O 1.329500 -1.082072 -0.655067
O 1.322965 1.344541 -0.085478
H 2.060592 1.669899 0.860645
9
Time step 746
C -0.864115 0.054516 -0.237412
F -0.897933 0.152810 -1.635833
F -1.700570 1.131811 0.257334
F -1.442913 -1.146412 0.236010
S 0.842570 -0.146610 0.263173
O 0.982986 -0.278937 1.694656
O 1.329705 -1.082266 -0.654502
O 1.321698 1.343899 -0.085192
H 2.063245 1.671196 0.859000
9
Time step 747
C -0.864527 0.054138 -0.238069
F -0.898550 0.152818 -1.635441
F -1.699485 1.131629 0.257460
F -1.442149 -1.145739 0.235911
S 0.842955 -0.146151 0.262195
O 0.981945 -0.279400 1.695876
O 1.329919 -1.082476 -0.653952
O 1.320452 1.343270 -0.084887
H 2.065596 1.672357 0.856979
9
Time step 748
C -0.864972 0.053764 -0.238733
F -0.899168 0.152823 -1.635033
F -1.698386 1.131434 0.257581
F -1.441382 -1.145054 0.235805
S 0.843339 -0.145682 0.261226
O 0.980902 -0.279867 1.697099
O 1.330143 -1.082702 -0.653416
O 1.319226 1.342655 -0.084562
H 2.067645 1.673379 0.854583
9
Time step 749
C -0.865452 0.053394 -0.239402
F -0.899786 0.152826 -1.634612
F -1.697274 1.131226 0.257697
F -1.440613 -1.144359 0.235692
S 0.843722 -0.145204 0.260265
O 0.979858 -0.280336 1.698325
O 1.330378 -1.082944 -0.652894
O 1.318022 1.342052 -0.084217
H 2.069391 1.674262 0.851815
9
Time step 750
C -0.865965 0.053029 -0.240075
F -0.900407 0.152827 -1.634176
F -1.696149 1.131004 0.257808
F -1.439842 -1.143654 0.235573
S 0.844103 -0.144718 0.259314
O 0.978812 -0.280807 1.699553
O 1.330624 -1.083203 -0.652388
O 1.316838 1.341463 -0.083854
H 2.070834 1.675003 0.848679
9
Time step 751
C -0.866512 0.052668 -0.240752
F -0.901028 0.152826 -1.633727
F -1.695011 1.130768 0.257913
F -1.439068 -1.142938 0.235447
S 0.844483 -0.144224 0.258372
O 0.977763 -0.281281 1.700783
O 1.330880 -1.083478 -0.651897
O 1.315676 1.340886 -0.083472
H 2.071974 1.675602 0.845178
9
Time step 752
C -0.867092 0.052311 -0.241434
F -0.901651 0.152824 -1.633265
F -1.693860 1.130518 0.258013
F -1.438292 -1.142211 0.235315
S 0.844863 -0.143722 0.257440
O 0.976712 -0.281755 1.702012
O 1.331147 -1.083768 -0.651421
O 1.314534 1.340323 -0.083071
H 2.072811 1.676058 0.841314
9
Time step 753
C -0.867704 0.051956 -0.242121
F -0.902276 0.152822 -1.632788
F -1.692697 1.130254 0.258108
F -1.437512 -1.141473 0.235176
S 0.845241 -0.143213 0.256519
O 0.975659 -0.282231 1.703240
O 1.331424 -1.084075 -0.650959
O 1.313414 1.339774 -0.082651
H 2.073343 1.676371 0.837089
9
Time step 754
C -0.868348 0.051604 -0.242814
F -0.902902 0.152817 -1.632298
F -1.691523 1.129977 0.258198
F -1.436728 -1.140722 0.235031
S 0.845619 -0.142696 0.255608
O 0.974604 -0.282709 1.704466
O 1.331710 -1.084399 -0.650512
O 1.312314 1.339239 -0.082213
H 2.073569 1.676542 0.832505
9
Time step 755
C -0.869026 0.051252 -0.243511
F -0.903529 0.152810 -1.631794
F -1.690336 1.129688 0.258282
F -1.435941 -1.139960 0.234878
S 0.845996 -0.142172 0.254708
O 0.973548 -0.283189 1.705690
O 1.332005 -1.084739 -0.650079
O 1.311236 1.338720 -0.081755
H 2.073488 1.676572 0.827564
9
Time step 756
C -0.869738 0.050902 -0.244211
F -0.904156 0.152801 -1.631276
F -1.689137 1.129385 0.258362
F -1.435150 -1.139185 0.234719
S 0.846373 -0.141639 0.253819
O 0.972489 -0.283671 1.706911
O 1.332308 -1.085097 -0.649660
O 1.310179 1.338216 -0.081278
H 2.073096 1.676461 0.822267
9
Time step 757
C -0.870484 0.050554 -0.244913
F -0.904785 0.152790 -1.630745
F -1.687925 1.129069 0.258436
F -1.434356 -1.138400 0.234552
S 0.846748 -0.141099 0.252941
O 0.971428 -0.284155 1.708129
O 1.332621 -1.085473 -0.649256
O 1.309144 1.337728 -0.080783
H 2.072394 1.676210 0.816617
9
Time step 758
C -0.871263 0.050210 -0.245616
F -0.905414 0.152777 -1.630203
F -1.686700 1.128739 0.258505
F -1.433559 -1.137604 0.234380
S 0.847122 -0.140550 0.252074
O 0.970366 -0.284642 1.709343
O 1.332945 -1.085867 -0.648867
O 1.308132 1.337257 -0.080269
H 2.071379 1.675818 0.810618
9
Time step 759
C -0.872074 0.049873 -0.246320
F -0.906045 0.152762 -1.629650
F -1.685462 1.128396 0.258568
F -1.432760 -1.136800 0.234201
S 0.847494 -0.139994 0.251220
O 0.969301 -0.285131 1.710555
O 1.333279 -1.086279 -0.648494
O 1.307141 1.336801 -0.079736
H 2.070052 1.675285 0.804274
9
Time step 760
C -0.872916 0.049544 -0.247025
F -0.906678 0.152745 -1.629087
F -1.684211 1.128039 0.258625
F -1.431959 -1.135986 0.234017
S 0.847863 -0.139430 0.250377
O 0.968234 -0.285621 1.711763
O 1.333624 -1.086709 -0.648137
O 1.306174 1.336361 -0.079186
H 2.068412 1.674609 0.797590
9
Time step 761
C -0.873786 0.049222 -0.247732
F -0.907313 0.152727 -1.628513
F -1.682948 1.127669 0.258678
F -1.431155 -1.135164 0.233828
S 0.848229 -0.138859 0.249548
O 0.967166 -0.286111 1.712966
O 1.333979 -1.087157 -0.647797
O 1.305228 1.335937 -0.078619
H 2.066463 1.673789 0.790570
9
Time step 762
C -0.874683 0.048908 -0.248443
F -0.907950 0.152707 -1.627928
F -1.681672 1.127285 0.258726
F -1.430349 -1.134334 0.233632
S 0.848592 -0.138282 0.248733
O 0.966096 -0.286600 1.714165
O 1.334346 -1.087622 -0.647474
O 1.304305 1.335529 -0.078035
H 2.064204 1.672824 0.783218
9
Time step 763
C -0.875605 0.048599 -0.249156
F -0.908589 0.152685 -1.627331
F -1.680384 1.126888 0.258769
F -1.429541 -1.133494 0.233430
S 0.848952 -0.137700 0.247933
O 0.965024 -0.287089 1.715358
O 1.334722 -1.088103 -0.647168
O 1.303404 1.335136 -0.077435
H 2.061636 1.671713 0.775540
9
Time step 764
C -0.876554 0.048294 -0.249873
F -0.909230 0.152660 -1.626722
F -1.679084 1.126478 0.258807
F -1.428732 -1.132644 0.233220
S 0.849309 -0.137112 0.247149
O 0.963953 -0.287576 1.716543
O 1.335109 -1.088599 -0.646879
O 1.302525 1.334759 -0.076820
H 2.058761 1.670458 0.767539
9
Time step 765
C -0.877529 0.047991 -0.250591
F -0.909872 0.152634 -1.626101
F -1.677773 1.126056 0.258841
F -1.427922 -1.131784 0.233002
S 0.849663 -0.136519 0.246381
O 0.962880 -0.288063 1.717720
O 1.335506 -1.089111 -0.646606
O 1.301667 1.334398 -0.076190
H 2.055581 1.669060 0.759219
9
Time step 766
C -0.878533 0.047691 -0.251310
F -0.910516 0.152605 -1.625469
F -1.676449 1.125622 0.258869
F -1.427111 -1.130914 0.232776
S 0.850015 -0.135921 0.245630
O 0.961808 -0.288549 1.718888
O 1.335913 -1.089638 -0.646351
O 1.300831 1.334054 -0.075545
H 2.052096 1.667522 0.750585
9
Time step 767
C -0.879566 0.047395 -0.252028
F -0.911160 0.152574 -1.624826
F -1.675114 1.125176 0.258892
F -1.426298 -1.130035 0.232543
S 0.850364 -0.135316 0.244895
O 0.960735 -0.289035 1.720046
O 1.336329 -1.090182 -0.646112
O 1.300017 1.333725 -0.074885
H 2.048310 1.665847 0.741642
9
Time step 768
C -0.880626 0.047104 -0.252745
F -0.911805 0.152540 -1.624173
F -1.673767 1.124717 0.258910
F -1.425484 -1.129147 0.232303
S 0.850709 -0.134706 0.244178
O 0.959662 -0.289522 1.721194
O 1.336756 -1.090741 -0.645891
O 1.299225 1.333414 -0.074212
H 2.044228 1.664039 0.732397
9
Time step 769
C -0.881711 0.046821 -0.253463
F -0.912451 0.152502 -1.623510
F -1.672409 1.124247 0.258923
F -1.424670 -1.128251 0.232056
S 0.851051 -0.134090 0.243478
O 0.958588 -0.290009 1.722331
O 1.337193 -1.091318 -0.645686
O 1.298455 1.333120 -0.073525
H 2.039858 1.662101 0.722856
9
Time step 770
C -0.882820 0.046545 -0.254184
F -0.913098 0.152462 -1.622837
F -1.671040 1.123766 0.258931
F -1.423854 -1.127348 0.231803
S 0.851389 -0.133468 0.242795
O 0.957513 -0.290498 1.723458
O 1.337641 -1.091912 -0.645497
O 1.297705 1.332844 -0.072824
H 2.035209 1.660038 0.713030
9
Time step 771
C -0.883949 0.046277 -0.254907
F -0.913748 0.152419 -1.622153
F -1.669660 1.123273 0.258936
F -1.423039 -1.126438 0.231545
S 0.851723 -0.132842 0.242128
O 0.956437 -0.290987 1.724573
O 1.338099 -1.092522 -0.645324
O 1.296977 1.332586 -0.072112
H 2.030291 1.657854 0.702929
9
Time step 772
C -0.885097 0.046014 -0.255634
F -0.914401 0.152375 -1.621460
F -1.668270 1.122768 0.258936
F -1.422224 -1.125521 0.231282
S 0.852054 -0.132211 0.241478
O 0.955360 -0.291476 1.725678
O 1.338569 -1.093148 -0.645166
O 1.296269 1.332346 -0.071388
H 2.025116 1.655553 0.692567
9
Time step 773
C -0.886264 0.045758 -0.256364
F -0.915057 0.152328 -1.620757
F -1.666870 1.122252 0.258932
F -1.421411 -1.124597 0.231013
S 0.852380 -0.131577 0.240844
O 0.954280 -0.291965 1.726771
O 1.339050 -1.093790 -0.645022
O 1.295581 1.332124 -0.070653
H 2.019697 1.653139 0.681957
9
Time step 774
C -0.887452 0.045506 -0.257095
F -0.915715 0.152280 -1.620044
F -1.665458 1.121724 0.258924
F -1.420599 -1.123665 0.230739
S 0.852703 -0.130940 0.240226
O 0.953199 -0.292453 1.727852
O 1.339543 -1.094445 -0.644892
O 1.294911 1.331919 -0.069909
H 2.014050 1.650618 0.671118
9
Time step 775
C -0.888661 0.045261 -0.257824
F -0.916375 0.152230 -1.619322
F -1.664036 1.121183 0.258911
F -1.419788 -1.122726 0.230458
S 0.853022 -0.130301 0.239625
O 0.952117 -0.292940 1.728919
O 1.340047 -1.095113 -0.644776
O 1.294260 1.331732 -0.069156
H 2.008191 1.647995 0.660069
9
Time step 776
C -0.889893 0.045024 -0.258549
F -0.917037 0.152177 -1.618592
F -1.662602 1.120630 0.258894
F -1.418975 -1.121778 0.230172
S 0.853337 -0.129660 0.239040
O 0.951032 -0.293426 1.729972
O 1.340562 -1.095796 -0.644673
O 1.293625 1.331562 -0.068396
H 2.002139 1.645277 0.648830
9
Time step 777
C -0.891148 0.044794 -0.259268
F -0.917700 0.152121 -1.617855
F -1.661158 1.120066 0.258873
F -1.418162 -1.120823 0.229878
S 0.853647 -0.129016 0.238471
O 0.949945 -0.293911 1.731011
O 1.341087 -1.096492 -0.644584
O 1.293006 1.331408 -0.067632
H 1.995912 1.642473 0.637425
9
Time step 778
C -0.892422 0.044573 -0.259982
F -0.918365 0.152061 -1.617111
F -1.659703 1.119490 0.258847
F -1.417348 -1.119861 0.229579
S 0.853952 -0.128370 0.237920
O 0.948857 -0.294396 1.732036
O 1.341622 -1.097202 -0.644510
O 1.292402 1.331271 -0.066863
H 1.989534 1.639593 0.625880
9
Time step 779
C -0.893712 0.044359 -0.260691
F -0.919031 0.151999 -1.616360
F -1.658238 1.118902 0.258817
F -1.416534 -1.118892 0.229273
S 0.854252 -0.127720 0.237386
O 0.947767 -0.294881 1.733046
O 1.342167 -1.097928 -0.644450
O 1.291810 1.331150 -0.066092
H 1.983027 1.636649 0.614221
9
Time step 780
C -0.895013 0.044152 -0.261397
F -0.919702 0.151934 -1.615603
F -1.656765 1.118305 0.258783
F -1.415721 -1.117917 0.228962
S 0.854546 -0.127069 0.236870
O 0.946676 -0.295365 1.734041
O 1.342721 -1.098669 -0.644404
O 1.291231 1.331046 -0.065321
H 1.976419 1.633656 0.602480
9
Time step 781
C -0.896324 0.043949 -0.262101
F -0.920376 0.151869 -1.614839
F -1.655283 1.117696 0.258744
F -1.414910 -1.116937 0.228647
S 0.854835 -0.126415 0.236372
O 0.945584 -0.295849 1.735021
O 1.343287 -1.099425 -0.644373
O 1.290662 1.330959 -0.064552
H 1.969739 1.630630 0.590688
9
Time step 782
C -0.897644 0.043752 -0.262803
F -0.921054 0.151803 -1.614069
F -1.653792 1.117077 0.258700
F -1.414101 -1.115951 0.228327
S 0.855118 -0.125759 0.235893
O 0.944492 -0.296333 1.735987
O 1.343862 -1.100197 -0.644356
O 1.290102 1.330887 -0.063788
H 1.963020 1.627590 0.578880
9
Time step 783
C -0.898976 0.043560 -0.263503
F -0.921736 0.151736 -1.613293
F -1.652294 1.116446 0.258651
F -1.413294 -1.114960 0.228003
S 0.855395 -0.125103 0.235431
O 0.943399 -0.296815 1.736936
O 1.344448 -1.100983 -0.644354
O 1.289549 1.330831 -0.063030
H 1.956300 1.624553 0.567093
9
Time step 784
C -0.900321 0.043376 -0.264200
F -0.922420 0.151668 -1.612510
F -1.650786 1.115804 0.258597
F -1.412489 -1.113964 0.227675
S 0.855666 -0.124447 0.234989
O 0.942305 -0.297295 1.737870
O 1.345044 -1.101783 -0.644365
O 1.289000 1.330787 -0.062281
H 1.949620 1.621541 0.555369
9
Time step 785
C -0.901683 0.043200 -0.264894
F -0.923106 0.151598 -1.611722
F -1.649269 1.115151 0.258539
F -1.411684 -1.112962 0.227342
S 0.855932 -0.123792 0.234565
O 0.941211 -0.297774 1.738786
O 1.345650 -1.102596 -0.644391
O 1.288451 1.330755 -0.061545
H 1.943029 1.618576 0.543749
9
Time step 786
C -0.903063 0.043034 -0.265582
F -0.923792 0.151527 -1.610928
F -1.647743 1.114488 0.258478
F -1.410879 -1.111956 0.227004
S 0.856190 -0.123137 0.234161
O 0.940116 -0.298250 1.739686
O 1.346266 -1.103422 -0.644431
O 1.287900 1.330733 -0.060825
H 1.936579 1.615682 0.532278
9
Time step 787
C -0.904459 0.042878 -0.266264
F -0.924479 0.151452 -1.610129
F -1.646207 1.113816 0.258413
F -1.410075 -1.110946 0.226659
S 0.856443 -0.122482 0.233776
O 0.939021 -0.298724 1.740566
O 1.346892 -1.104260 -0.644484
O 1.287343 1.330718 -0.060123
H 1.930327 1.612886 0.521005
9
Time step 788
C -0.905868 0.042731 -0.266940
F -0.925168 0.151375 -1.609325
F -1.644663 1.113134 0.258344
F -1.409272 -1.109932 0.226309
S 0.856689 -0.121829 0.233411
O 0.937926 -0.299197 1.741428
O 1.347528 -1.105110 -0.644551
O 1.286775 1.330710 -0.059442
H 1.924332 1.610212 0.509976
9
Time step 789
C -0.907286 0.042592 -0.267610
F -0.925859 0.151295 -1.608517
F -1.643112 1.112445 0.258271
F -1.408470 -1.108915 0.225954
S 0.856928 -0.121176 0.233065
O 0.936830 -0.299668 1.742269
O 1.348174 -1.105971 -0.644631
O 1.286193 1.330706 -0.058787
H 1.918657 1.607689 0.499243
9
Time step 790
C -0.908711 0.042459 -0.268273
F -0.926553 0.151213 -1.607704
F -1.641554 1.111748 0.258194
F -1.407672 -1.107895 0.225593
S 0.857162 -0.120525 0.232740
O 0.935735 -0.300138 1.743090
O 1.348831 -1.106844 -0.644724
O 1.285595 1.330707 -0.058158
H 1.913365 1.605342 0.488856
9
Time step 791
C -0.910141 0.042335 -0.268930
F -0.927250 0.151129 -1.606887
F -1.639989 1.111042 0.258113
F -1.406878 -1.106871 0.225228
S 0.857388 -0.119875 0.232434
O 0.934640 -0.300606 1.743891
O 1.349496 -1.107727 -0.644828
O 1.284975 1.330710 -0.057561
H 1.908523 1.603199 0.478866
9
Time step 792
C -0.911574 0.042220 -0.269581
F -0.927950 0.151042 -1.606068
F -1.638419 1.110329 0.258028
F -1.406086 -1.105845 0.224858
S 0.857608 -0.119227 0.232148
O 0.933545 -0.301072 1.744671
O 1.350171 -1.108620 -0.644945
O 1.284331 1.330714 -0.056997
H 1.904194 1.601287 0.469323
9
Time step 793
C -0.913014 0.042114 -0.270224
F -0.928654 0.150952 -1.605245
F -1.636843 1.109606 0.257939
F -1.405298 -1.104816 0.224484
S 0.857821 -0.118582 0.231882
O 0.932450 -0.301537 1.745431
O 1.350855 -1.109522 -0.645073
O 1.283659 1.330720 -0.056470
H 1.900444 1.599633 0.460276
9
Time step 794
C -0.914459 0.042019 -0.270861
F -0.929360 0.150859 -1.604418
F -1.635259 1.108873 0.257846
F -1.404512 -1.103784 0.224105
S 0.858027 -0.117942 0.231634
O 0.931355 -0.301999 1.746171
O 1.351546 -1.110433 -0.645213
O 1.282956 1.330724 -0.055983
H 1.897335 1.598264 0.451776
9
Time step 795
C -0.915912 0.041934 -0.271491
F -0.930070 0.150764 -1.603588
F -1.633668 1.108132 0.257749
F -1.403728 -1.102750 0.223721
S 0.858227 -0.117305 0.231404
O 0.930259 -0.302459 1.746893
O 1.352246 -1.111352 -0.645364
O 1.282217 1.330726 -0.055539
H 1.894930 1.597209 0.443864
9
Time step 796
C -0.917373 0.041857 -0.272116
F -0.930783 0.150666 -1.602755
F -1.632070 1.107381 0.257648
F -1.402946 -1.101712 0.223333
S 0.858420 -0.116673 0.231193
O 0.929163 -0.302916 1.747597
O 1.352953 -1.112279 -0.645525
O 1.281438 1.330723 -0.055140
H 1.893283 1.596493 0.436583
9
Time step 797
C -0.918840 0.041790 -0.272734
F -0.931499 0.150567 -1.601919
F -1.630463 1.106622 0.257544
F -1.402168 -1.100673 0.222941
S 0.858607 -0.116045 0.230999
O 0.928066 -0.303370 1.748282
O 1.353669 -1.113213 -0.645697
O 1.280616 1.330716 -0.054788
H 1.892446 1.596138 0.429965
9
Time step 798
C -0.920313 0.041729 -0.273346
F -0.932218 0.150465 -1.601080
F -1.628849 1.105855 0.257435
F -1.401393 -1.099632 0.222544
S 0.858788 -0.115422 0.230823
O 0.926969 -0.303821 1.748949
O 1.354392 -1.114154 -0.645878
O 1.279749 1.330701 -0.054485
H 1.892462 1.596163 0.424035
9
Time step 799
C -0.921790 0.041677 -0.273951
F -0.932941 0.150362 -1.600240
F -1.627228 1.105081 0.257325
F -1.400622 -1.098590 0.222143
S 0.858963 -0.114805 0.230664
O 0.925872 -0.304268 1.749596
O 1.355124 -1.115102 -0.646068
O 1.278834 1.330680 -0.054231
H 1.893363 1.596580 0.418810
9
Time step 800
C -0.923269 0.041633 -0.274549
F -0.933667 0.150257 -1.599399
F -1.625601 1.104299 0.257211
F -1.399855 -1.097548 0.221738
S 0.859132 -0.114192 0.230522
O 0.924775 -0.304711 1.750224
O 1.355863 -1.116057 -0.646267
O 1.277870 1.330650 -0.054027
H 1.895167 1.597394 0.414294
9
Time step 801
C -0.924747 0.041599 -0.275138
F -0.934396 0.150149 -1.598558
F -1.623969 1.103511 0.257096
F -1.399094 -1.096506 0.221329
S 0.859294 -0.113586 0.230397
O 0.923679 -0.305151 1.750831
O 1.356609 -1.117019 -0.646474
O 1.276858 1.330614 -0.053872
H 1.897883 1.598607 0.410483
9
Time step 802
C -0.926224 0.041577 -0.275718
F -0.935127 0.150039 -1.597718
F -1.622333 1.102715 0.256979
F -1.398339 -1.095464 0.220917
S 0.859449 -0.112984 0.230289
O 0.922584 -0.305587 1.751417
O 1.357361 -1.117988 -0.646688
O 1.275798 1.330572 -0.053765
H 1.901502 1.600214 0.407362
9
Time step 803
C -0.927697 0.041567 -0.276288
F -0.935861 0.149925 -1.596879
F -1.620692 1.101912 0.256860
F -1.397589 -1.094423 0.220501
S 0.859597 -0.112389 0.230198
O 0.921490 -0.306021 1.751983
O 1.358120 -1.118963 -0.646911
O 1.274691 1.330525 -0.053705
H 1.906004 1.602206 0.404905
9
Time step 804
C -0.929165 0.041568 -0.276849
F -0.936598 0.149809 -1.596040
F -1.619047 1.101102 0.256737
F -1.396845 -1.093383 0.220082
S 0.859737 -0.111800 0.230124
O 0.920397 -0.306451 1.752528
O 1.358886 -1.119944 -0.647140
O 1.273539 1.330475 -0.053690
H 1.911358 1.604571 0.403083
9
Time step 805
C -0.930626 0.041580 -0.277402
F -0.937340 0.149691 -1.595201
F -1.617398 1.100285 0.256612
F -1.396107 -1.092344 0.219659
S 0.859871 -0.111218 0.230068
O 0.919305 -0.306879 1.753052
O 1.359657 -1.120931 -0.647377
O 1.272345 1.330422 -0.053719
H 1.917524 1.607292 0.401855
9
Time step 806
C -0.932081 0.041602 -0.277947
F -0.938086 0.149570 -1.594363
F -1.615743 1.099461 0.256485
F -1.395374 -1.091305 0.219233
S 0.859998 -0.110643 0.230029
O 0.918213 -0.307305 1.753557
O 1.360435 -1.121923 -0.647621
O 1.271112 1.330370 -0.053788
H 1.924454 1.610348 0.401180
9
Time step 807
C -0.933529 0.041634 -0.278483
F -0.938838 0.149448 -1.593527
F -1.614085 1.098630 0.256355
F -1.394647 -1.090267 0.218804
S 0.860117 -0.110075 0.230008
O 0.917122 -0.307728 1.754041
O 1.361220 -1.122920 -0.647872
O 1.269844 1.330318 -0.053897
H 1.932095 1.613716 0.401013
9
Time step 808
C -0.934968 0.041675 -0.279011
F -0.939594 0.149324 -1.592692
F -1.612422 1.097794 0.256223
F -1.393925 -1.089231 0.218371
S 0.860228 -0.109515 0.230005
O 0.916031 -0.308149 1.754506
O 1.362012 -1.123922 -0.648130
O 1.268544 1.330269 -0.054041
H 1.940391 1.617368 0.401308
9
Time step 809
C -0.936400 0.041724 -0.279529
F -0.940354 0.149198 -1.591860
F -1.610757 1.096953 0.256089
F -1.393208 -1.088195 0.217937
S 0.860332 -0.108963 0.230019
O 0.914940 -0.308567 1.754951
O 1.362811 -1.124927 -0.648394
O 1.267216 1.330225 -0.054218
H 1.949283 1.621274 0.402017
9
Time step 810
C -0.937824 0.041783 -0.280038
F -0.941118 0.149071 -1.591032
F -1.609088 1.096107 0.255955
F -1.392498 -1.087163 0.217500
S 0.860428 -0.108419 0.230050
O 0.913849 -0.308983 1.755376
O 1.363617 -1.125936 -0.648664
O 1.265864 1.330187 -0.054426
H 1.958706 1.625404 0.403092
9
Time step 811
C -0.939238 0.041850 -0.280536
F -0.941885 0.148942 -1.590206
F -1.607417 1.095258 0.255820
F -1.391794 -1.086133 0.217061
S 0.860516 -0.107884 0.230097
O 0.912758 -0.309395 1.755779
O 1.364430 -1.126947 -0.648940
O 1.264493 1.330157 -0.054661
H 1.968597 1.629726 0.404487
9
Time step 812
C -0.940642 0.041926 -0.281023
F -0.942655 0.148812 -1.589384
F -1.605743 1.094406 0.255683
F -1.391097 -1.085107 0.216621
S 0.860597 -0.107358 0.230162
O 0.911669 -0.309805 1.756160
O 1.365251 -1.127960 -0.649221
O 1.263105 1.330138 -0.054921
H 1.978890 1.634209 0.406155
9
Time step 813
C -0.942038 0.042011 -0.281502
F -0.943427 0.148681 -1.588564
F -1.604067 1.093551 0.255544
F -1.390407 -1.084086 0.216180
S 0.860669 -0.106841 0.230244
O 0.910580 -0.310212 1.756519
O 1.366078 -1.128975 -0.649507
O 1.261705 1.330131 -0.055203
H 1.989519 1.638823 0.408052
9
Time step 814
C -0.943424 0.042106 -0.281970
F -0.944202 0.148549 -1.587747
F -1.602389 1.092693 0.255403
F -1.389722 -1.083069 0.215737
S 0.860735 -0.106335 0.230342
O 0.909492 -0.310617 1.756855
O 1.366912 -1.129990 -0.649796
O 1.260296 1.330139 -0.055505
H 2.000420 1.643540 0.410131
9
Time step 815
C -0.944802 0.042212 -0.282427
F -0.944980 0.148415 -1.586933
F -1.600709 1.091832 0.255260
F -1.389044 -1.082056 0.215293
S 0.860793 -0.105840 0.230458
O 0.908404 -0.311020 1.757170
O 1.367752 -1.131005 -0.650090
O 1.258883 1.330163 -0.055823
H 2.011531 1.648331 0.412354
9
Time step 816
C -0.946168 0.042329 -0.282872
F -0.945762 0.148279 -1.586124
F -1.599027 1.090968 0.255116
F -1.388371 -1.081048 0.214847
S 0.860844 -0.105355 0.230591
O 0.907317 -0.311421 1.757462
O 1.368597 -1.132020 -0.650387
O 1.257470 1.330206 -0.056157
H 2.022794 1.653171 0.414680
9
Time step 817
C -0.947522 0.042456 -0.283303
F -0.946547 0.148141 -1.585320
F -1.597345 1.090102 0.254970
F -1.387704 -1.080043 0.214399
S 0.860889 -0.104880 0.230741
O 0.906230 -0.311820 1.757733
O 1.369447 -1.133035 -0.650688
O 1.256061 1.330269 -0.056502
H 2.034154 1.658036 0.417075
9
Time step 818
C -0.948862 0.042593 -0.283719
F -0.947337 0.148000 -1.584523
F -1.595662 1.089234 0.254823
F -1.387044 -1.079043 0.213949
S 0.860927 -0.104417 0.230907
O 0.905143 -0.312216 1.757981
O 1.370301 -1.134049 -0.650993
O 1.254657 1.330353 -0.056858
H 2.045559 1.662904 0.419507
9
Time step 819
C -0.950185 0.042739 -0.284120
F -0.948130 0.147857 -1.583733
F -1.593978 1.088364 0.254675
F -1.386393 -1.078048 0.213497
S 0.860960 -0.103964 0.231090
O 0.904058 -0.312610 1.758208
O 1.371160 -1.135062 -0.651300
O 1.253263 1.330460 -0.057221
H 2.056962 1.667754 0.421948
9
Time step 820
C -0.951492 0.042894 -0.284506
F -0.948928 0.147713 -1.582950
F -1.592294 1.087493 0.254526
F -1.385751 -1.077058 0.213042
S 0.860987 -0.103522 0.231290
O 0.902973 -0.312999 1.758412
O 1.372022 -1.136072 -0.651610
O 1.251880 1.330590 -0.057591
H 2.068319 1.672567 0.424374
9
Time step 821
C -0.952781 0.043058 -0.284879
F -0.949730 0.147567 -1.582173
F -1.590609 1.086621 0.254376
F -1.385119 -1.076075 0.212587
S 0.861009 -0.103093 0.231505
O 0.901890 -0.313385 1.758594
O 1.372889 -1.137081 -0.651923
O 1.250511 1.330745 -0.057966
H 2.079589 1.677327 0.426762
9
Time step 822
C -0.954055 0.043232 -0.285240
F -0.950536 0.147419 -1.581403
F -1.588923 1.085747 0.254226
F -1.384495 -1.075099 0.212129
S 0.861025 -0.102676 0.231737
O 0.900809 -0.313767 1.758753
O 1.373760 -1.138088 -0.652237
O 1.249157 1.330927 -0.058344
H 2.090735 1.682016 0.429092
9
Time step 823
C -0.955314 0.043418 -0.285592
F -0.951346 0.147270 -1.580637
F -1.587236 1.084873 0.254075
F -1.383880 -1.074130 0.211671
S 0.861035 -0.102271 0.231985
O 0.899729 -0.314144 1.758889
O 1.374635 -1.139092 -0.652551
O 1.247821 1.331135 -0.058724
H 2.101725 1.686619 0.431345
9
Time step 824
C -0.956557 0.043618 -0.285933
F -0.952160 0.147119 -1.579877
F -1.585548 1.083996 0.253924
F -1.383274 -1.073167 0.211210
S 0.861040 -0.101880 0.232249
O 0.898651 -0.314518 1.759002
O 1.375513 -1.140094 -0.652866
O 1.246504 1.331371 -0.059105
H 2.112529 1.691121 0.433504
9
Time step 825
C -0.957784 0.043830 -0.286262
F -0.952977 0.146965 -1.579124
F -1.583860 1.083119 0.253773
F -1.382675 -1.072212 0.210749
S 0.861039 -0.101500 0.232528
O 0.897574 -0.314887 1.759091
O 1.376394 -1.141094 -0.653182
O 1.245209 1.331637 -0.059487
H 2.123119 1.695510 0.435555
9
Time step 826
C -0.958993 0.044053 -0.286579
F -0.953797 0.146810 -1.578377
F -1.582172 1.082240 0.253622
F -1.382085 -1.071263 0.210285
S 0.861032 -0.101134 0.232823
O 0.896499 -0.315253 1.759158
O 1.377279 -1.142091 -0.653497
O 1.243936 1.331931 -0.059868
H 2.133470 1.699772 0.437482
9
Time step 827
C -0.960179 0.044286 -0.286883
F -0.954622 0.146653 -1.577638
F -1.580486 1.081361 0.253472
F -1.381505 -1.070321 0.209820
S 0.861020 -0.100779 0.233133
O 0.895426 -0.315616 1.759202
O 1.378168 -1.143085 -0.653813
O 1.242688 1.332256 -0.060249
H 2.143561 1.703897 0.439276
9
Time step 828
C -0.961342 0.044527 -0.287175
F -0.955452 0.146495 -1.576907
F -1.578801 1.080482 0.253323
F -1.380935 -1.069387 0.209355
S 0.861001 -0.100436 0.233458
O 0.894354 -0.315974 1.759224
O 1.379060 -1.144077 -0.654128
O 1.241466 1.332612 -0.060629
H 2.153372 1.707876 0.440927
9
Time step 829
C -0.962478 0.044775 -0.287456
F -0.956286 0.146336 -1.576184
F -1.577119 1.079605 0.253176
F -1.380375 -1.068460 0.208888
S 0.860977 -0.100106 0.233798
O 0.893283 -0.316330 1.759226
O 1.379956 -1.145066 -0.654444
O 1.240270 1.333000 -0.061007
H 2.162885 1.711702 0.442429
9
Time step 830
C -0.963587 0.045034 -0.287728
F -0.957125 0.146176 -1.575469
F -1.575440 1.078730 0.253030
F -1.379825 -1.067544 0.208422
S 0.860947 -0.099789 0.234152
O 0.892214 -0.316682 1.759207
O 1.380855 -1.146051 -0.654759
O 1.239101 1.333419 -0.061384
H 2.172084 1.715367 0.443775
9
Time step 831
C -0.964670 0.045304 -0.287992
F -0.957968 0.146015 -1.574763
F -1.573763 1.077857 0.252886
F -1.379285 -1.066637 0.207957
S 0.860912 -0.099486 0.234520
O 0.891146 -0.317031 1.759168
O 1.381756 -1.147031 -0.655073
O 1.237960 1.333871 -0.061760
H 2.180957 1.718868 0.444961
9
Time step 832
C -0.965726 0.045589 -0.288247
F -0.958815 0.145851 -1.574066
F -1.572089 1.076986 0.252744
F -1.378755 -1.065740 0.207493
S 0.860871 -0.099197 0.234901
O 0.890080 -0.317377 1.759111
O 1.382659 -1.148006 -0.655385
O 1.236848 1.334355 -0.062132
H 2.189492 1.722200 0.445983
9
Time step 833
C -0.966757 0.045888 -0.288492
F -0.959667 0.145685 -1.573378
F -1.570418 1.076117 0.252604
F -1.378234 -1.064855 0.207029
S 0.860825 -0.098923 0.235294
O 0.889016 -0.317721 1.759034
O 1.383562 -1.148975 -0.655695
O 1.235765 1.334873 -0.062501
H 2.197679 1.725361 0.446836
9
Time step 834
C -0.967762 0.046198 -0.288724
F -0.960522 0.145516 -1.572701
F -1.568749 1.075251 0.252465
F -1.377724 -1.063980 0.206566
S 0.860775 -0.098662 0.235699
O 0.887953 -0.318061 1.758939
O 1.384466 -1.149937 -0.656003
O 1.234712 1.335424 -0.062866
H 2.205509 1.728347 0.447513
9
Time step 835
C -0.968740 0.046517 -0.288943
F -0.961380 0.145347 -1.572035
F -1.567084 1.074388 0.252328
F -1.377224 -1.063116 0.206105
S 0.860722 -0.098416 0.236114
O 0.886892 -0.318398 1.758826
O 1.385369 -1.150893 -0.656307
O 1.233690 1.336008 -0.063226
H 2.212976 1.731158 0.448011
9
Time step 836
C -0.969693 0.046838 -0.289148
F -0.962243 0.145176 -1.571381
F -1.565422 1.073530 0.252192
F -1.376736 -1.062263 0.205644
S 0.860664 -0.098183 0.236541
O 0.885833 -0.318733 1.758695
O 1.386272 -1.151841 -0.656608
O 1.232698 1.336626 -0.063580
H 2.220073 1.733791 0.448325
9
Time step 837
C -0.970620 0.047159 -0.289339
F -0.963110 0.145006 -1.570739
F -1.563764 1.072678 0.252058
F -1.376259 -1.061420 0.205184
S 0.860604 -0.097963 0.236977
O 0.884775 -0.319064 1.758546
O 1.387176 -1.152783 -0.656905
O 1.231738 1.337277 -0.063929
H 2.226795 1.736245 0.448452
9
Time step 838
C -0.971521 0.047480 -0.289517
F -0.963981 0.144836 -1.570108
F -1.562109 1.071833 0.251927
F -1.375792 -1.060587 0.204725
S 0.860539 -0.097758 0.237425
O 0.883719 -0.319392 1.758379
O 1.388079 -1.153717 -0.657199
O 1.230810 1.337961 -0.064272
H 2.233140 1.738517 0.448393
9
Time step 839
C -0.972394 0.047801 -0.289685
F -0.964856 0.144666 -1.569489
F -1.560458 1.070995 0.251798
F -1.375335 -1.059764 0.204267
S 0.860471 -0.097568 0.237883
O 0.882664 -0.319716 1.758194
O 1.388984 -1.154643 -0.657490
O 1.229913 1.338680 -0.064610
H 2.239103 1.740606 0.448147
9
Time step 840
C -0.973240 0.048128 -0.289841
F -0.965736 0.144494 -1.568882
F -1.558812 1.070163 0.251673
F -1.374887 -1.058951 0.203810
S 0.860398 -0.097392 0.238352
O 0.881610 -0.320038 1.757991
O 1.389890 -1.155562 -0.657776
O 1.229049 1.339432 -0.064944
H 2.244682 1.742510 0.447716
9
Time step 841
C -0.974057 0.048464 -0.289986
F -0.966619 0.144319 -1.568288
F -1.557173 1.069337 0.251553
F -1.374449 -1.058150 0.203355
S 0.860320 -0.097233 0.238832
O 0.880557 -0.320356 1.757769
O 1.390798 -1.156473 -0.658059
O 1.228217 1.340218 -0.065273
H 2.249873 1.744230 0.447102
9
Time step 842
C -0.974843 0.048812 -0.290118
F -0.967507 0.144143 -1.567707
F -1.555539 1.068517 0.251436
F -1.374022 -1.057360 0.202902
S 0.860237 -0.097089 0.239323
O 0.879506 -0.320671 1.757528
O 1.391708 -1.157376 -0.658338
O 1.227418 1.341037 -0.065599
H 2.254673 1.745764 0.446307
9
Time step 843
C -0.975598 0.049170 -0.290236
F -0.968398 0.143965 -1.567139
F -1.553912 1.067703 0.251323
F -1.373606 -1.056584 0.202450
S 0.860149 -0.096962 0.239824
O 0.878456 -0.320983 1.757268
O 1.392620 -1.158269 -0.658612
O 1.226652 1.341890 -0.065921
H 2.259079 1.747113 0.445331
9
Time step 844
C -0.976321 0.049538 -0.290341
F -0.969293 0.143787 -1.566584
F -1.552290 1.066896 0.251214
F -1.373203 -1.055822 0.202000
S 0.860056 -0.096850 0.240337
O 0.877409 -0.321291 1.756987
O 1.393534 -1.159153 -0.658880
O 1.225919 1.342774 -0.066240
H 2.263087 1.748277 0.444174
9
Time step 845
C -0.977013 0.049913 -0.290432
F -0.970192 0.143608 -1.566042
F -1.550674 1.066096 0.251109
F -1.372814 -1.055075 0.201551
S 0.859959 -0.096754 0.240861
O 0.876363 -0.321595 1.756685
O 1.394449 -1.160027 -0.659143
O 1.225219 1.343691 -0.066557
H 2.266697 1.749254 0.442837
9
Time step 846
C -0.977673 0.050292 -0.290513
F -0.971094 0.143429 -1.565511
F -1.549063 1.065305 0.251007
F -1.372437 -1.054342 0.201104
S 0.859858 -0.096672 0.241397
O 0.875320 -0.321894 1.756362
O 1.395365 -1.160891 -0.659401
O 1.224551 1.344639 -0.066870
H 2.269907 1.750045 0.441317
9
Time step 847
C -0.978303 0.050675 -0.290585
F -0.972000 0.143251 -1.564992
F -1.547457 1.064522 0.250910
F -1.372072 -1.053623 0.200659
S 0.859753 -0.096606 0.241945
O 0.874280 -0.322189 1.756018
O 1.396282 -1.161744 -0.659653
O 1.223916 1.345617 -0.067179
H 2.272717 1.750646 0.439614
9
Time step 848
C -0.978901 0.051062 -0.290648
F -0.972910 0.143071 -1.564485
F -1.545858 1.063749 0.250818
F -1.371719 -1.052919 0.200214
S 0.859644 -0.096554 0.242504
O 0.873242 -0.322481 1.755652
O 1.397200 -1.162587 -0.659898
O 1.223313 1.346626 -0.067484
H 2.275129 1.751057 0.437728
9
Time step 849
C -0.979466 0.051456 -0.290703
F -0.973823 0.142890 -1.563990
F -1.544266 1.062985 0.250732
F -1.371377 -1.052229 0.199772
S 0.859530 -0.096516 0.243074
O 0.872206 -0.322768 1.755265
O 1.398118 -1.163419 -0.660138
O 1.222743 1.347664 -0.067786
H 2.277142 1.751278 0.435661
9
Time step 850
C -0.979995 0.051858 -0.290749
F -0.974742 0.142708 -1.563510
F -1.542681 1.062231 0.250651
F -1.371048 -1.051553 0.199332
S 0.859413 -0.096493 0.243656
O 0.871172 -0.323053 1.754857
O 1.399037 -1.164242 -0.660371
O 1.222205 1.348733 -0.068082
H 2.278757 1.751308 0.433412
9
Time step 851
C -0.980487 0.052268 -0.290785
F -0.975665 0.142523 -1.563044
F -1.541105 1.061485 0.250575
F -1.370731 -1.050893 0.198895
S 0.859293 -0.096485 0.244248
O 0.870141 -0.323335 1.754429
O 1.399956 -1.165053 -0.660598
O 1.221699 1.349831 -0.068375
H 2.279974 1.751151 0.430985
9
Time step 852
C -0.980941 0.052686 -0.290811
F -0.976593 0.142337 -1.562594
F -1.539538 1.060750 0.250505
F -1.370427 -1.050247 0.198462
S 0.859169 -0.096490 0.244849
O 0.869112 -0.323615 1.753981
O 1.400876 -1.165854 -0.660818
O 1.221225 1.350959 -0.068663
H 2.280792 1.750807 0.428380
9
Time step 853
C -0.981356 0.053110 -0.290827
F -0.977525 0.142149 -1.562160
F -1.537979 1.060025 0.250441
F -1.370137 -1.049617 0.198032
S 0.859042 -0.096509 0.245460
O 0.868084 -0.323893 1.753516
O 1.401794 -1.166643 -0.661032
O 1.220783 1.352116 -0.068946
H 2.281211 1.750282 0.425597
9
Time step 854
C -0.981732 0.053537 -0.290834
F -0.978461 0.141960 -1.561739
F -1.536429 1.059310 0.250383
F -1.369860 -1.049003 0.197606
S 0.858912 -0.096542 0.246079
O 0.867059 -0.324169 1.753033
O 1.402712 -1.167420 -0.661238
O 1.220374 1.353301 -0.069226
H 2.281228 1.749577 0.422637
9
Time step 855
C -0.982071 0.053966 -0.290834
F -0.979402 0.141769 -1.561333
F -1.534887 1.058609 0.250331
F -1.369596 -1.048403 0.197182
S 0.858780 -0.096590 0.246705
O 0.866035 -0.324443 1.752535
O 1.403627 -1.168185 -0.661437
O 1.219997 1.354516 -0.069501
H 2.280843 1.748695 0.419501
9
Time step 856
C -0.982374 0.054396 -0.290827
F -0.980345 0.141577 -1.560940
F -1.533353 1.057919 0.250285
F -1.369345 -1.047818 0.196760
S 0.858645 -0.096652 0.247339
O 0.865014 -0.324715 1.752021
O 1.404539 -1.168936 -0.661628
O 1.219653 1.355759 -0.069771
H 2.280052 1.747638 0.416188
9
Time step 857
C -0.982640 0.054824 -0.290813
F -0.981293 0.141384 -1.560560
F -1.531828 1.057244 0.250246
F -1.369105 -1.047249 0.196341
S 0.858508 -0.096729 0.247978
O 0.863994 -0.324984 1.751493
O 1.405449 -1.169673 -0.661810
O 1.219340 1.357031 -0.070036
H 2.278855 1.746407 0.412698
9
Time step 858
C -0.982871 0.055252 -0.290790
F -0.982244 0.141190 -1.560195
F -1.530311 1.056582 0.250214
F -1.368877 -1.046694 0.195925
S 0.858370 -0.096821 0.248622
O 0.862977 -0.325251 1.750950
O 1.406356 -1.170397 -0.661983
O 1.219059 1.358332 -0.070296
H 2.277249 1.745003 0.409032
9
Time step 859
C -0.983066 0.055680 -0.290758
F -0.983199 0.140995 -1.559846
F -1.528804 1.055934 0.250188
F -1.368661 -1.046155 0.195513
S 0.858229 -0.096928 0.249271
O 0.861963 -0.325516 1.750393
O 1.407260 -1.171109 -0.662146
O 1.218810 1.359661 -0.070549
H 2.275235 1.743426 0.405193
9
Time step 860
C -0.983224 0.056107 -0.290714
F -0.984157 0.140801 -1.559513
F -1.527306 1.055300 0.250168
F -1.368458 -1.045631 0.195104
S 0.858087 -0.097050 0.249924
O 0.860951 -0.325777 1.749822
O 1.408163 -1.171807 -0.662299
O 1.218593 1.361018 -0.070795
H 2.272814 1.741677 0.401182
9
Time step 861
C -0.983345 0.056534 -0.290661
F -0.985119 0.140606 -1.559199
F -1.525819 1.054679 0.250156
F -1.368268 -1.045124 0.194700
S 0.857943 -0.097188 0.250581
O 0.859941 -0.326035 1.749238
O 1.409063 -1.172492 -0.662443
O 1.218409 1.362403 -0.071035
H 2.269988 1.739756 0.397000
9
Time step 862
C -0.983427 0.056961 -0.290597
F -0.986085 0.140410 -1.558902
F -1.524342 1.054073 0.250151
F -1.368092 -1.044632 0.194299
S 0.857798 -0.097340 0.251241
O 0.858934 -0.326290 1.748639
O 1.409962 -1.173165 -0.662578
O 1.218257 1.363815 -0.071268
H 2.266760 1.737663 0.392650
9
Time step 863
C -0.983471 0.057387 -0.290525
F -0.987054 0.140213 -1.558622
F -1.522877 1.053481 0.250155
F -1.367929 -1.044157 0.193903
S 0.857651 -0.097508 0.251907
O 0.857930 -0.326540 1.748027
O 1.410859 -1.173824 -0.662704
O 1.218138 1.365254 -0.071495
H 2.263134 1.735401 0.388132
9
Time step 864
C -0.983476 0.057812 -0.290445
F -0.988026 0.140016 -1.558359
F -1.521423 1.052904 0.250169
F -1.367779 -1.043698 0.193509
S 0.857502 -0.097690 0.252577
O 0.856928 -0.326787 1.747401
O 1.411753 -1.174470 -0.662822
O 1.218050 1.366719 -0.071717
H 2.259114 1.732972 0.383448
9
Time step 865
C -0.983442 0.058236 -0.290359
F -0.989002 0.139817 -1.558111
F -1.519981 1.052343 0.250191
F -1.367642 -1.043255 0.193118
S 0.857351 -0.097887 0.253252
O 0.855928 -0.327029 1.746762
O 1.412645 -1.175102 -0.662931
O 1.217994 1.368209 -0.071934
H 2.254704 1.730378 0.378600
9
Time step 866
C -0.983369 0.058658 -0.290267
F -0.989981 0.139618 -1.557878
F -1.518548 1.051798 0.250222
F -1.367517 -1.042829 0.192729
S 0.857198 -0.098098 0.253932
O 0.854931 -0.327267 1.746109
O 1.413534 -1.175719 -0.663030
O 1.217968 1.369724 -0.072146
H 2.249908 1.727624 0.373588
9
Time step 867
C -0.983258 0.059077 -0.290169
F -0.990963 0.139418 -1.557660
F -1.517126 1.051270 0.250262
F -1.367404 -1.042421 0.192344
S 0.857043 -0.098324 0.254616
O 0.853936 -0.327503 1.745443
O 1.414421 -1.176322 -0.663120
O 1.217973 1.371261 -0.072354
H 2.244729 1.724713 0.368416
9
Time step 868
C -0.983109 0.059492 -0.290068
F -0.991949 0.139220 -1.557456
F -1.515713 1.050759 0.250310
F -1.367304 -1.042032 0.191962
S 0.856886 -0.098564 0.255305
O 0.852943 -0.327735 1.744763
O 1.415305 -1.176910 -0.663200
O 1.218007 1.372822 -0.072558
H 2.239173 1.721649 0.363088
9
Time step 869
C -0.982920 0.059904 -0.289963
F -0.992938 0.139021 -1.557267
F -1.514311 1.050266 0.250366
F -1.367217 -1.041661 0.191586
S 0.856726 -0.098818 0.255998
O 0.851954 -0.327964 1.744071
O 1.416187 -1.177482 -0.663269
O 1.218071 1.374405 -0.072757
H 2.233245 1.718435 0.357608
9
Time step 870
C -0.982691 0.060311 -0.289855
F -0.993930 0.138824 -1.557094
F -1.512919 1.049792 0.250431
F -1.367143 -1.041309 0.191214
S 0.856564 -0.099085 0.256694
O 0.850968 -0.328190 1.743366
O 1.417066 -1.178039 -0.663329
O 1.218164 1.376010 -0.072952
H 2.226953 1.715074 0.351982
9
Time step 871
C -0.982417 0.060712 -0.289746
F -0.994926 0.138625 -1.556937
F -1.511540 1.049336 0.250507
F -1.367083 -1.040975 0.190847
S 0.856400 -0.099365 0.257393
O 0.849985 -0.328414 1.742649
O 1.417942 -1.178581 -0.663378
O 1.218286 1.377636 -0.073142
H 2.220306 1.711571 0.346215
9
Time step 872
C -0.982097 0.061106 -0.289634
F -0.995925 0.138427 -1.556797
F -1.510173 1.048899 0.250592
F -1.367037 -1.040660 0.190484
S 0.856234 -0.099658 0.258095
O 0.849006 -0.328635 1.741921
O 1.418813 -1.179108 -0.663417
O 1.218436 1.379283 -0.073328
H 2.213314 1.707930 0.340310
9
Time step 873
C -0.981728 0.061494 -0.289517
F -0.996929 0.138227 -1.556673
F -1.508821 1.048481 0.250689
F -1.367005 -1.040361 0.190125
S 0.856065 -0.099965 0.258800
O 0.848029 -0.328854 1.741181
O 1.419681 -1.179620 -0.663446
O 1.218614 1.380951 -0.073509
H 2.205989 1.704159 0.334273
9
Time step 874
C -0.981309 0.061876 -0.289395
F -0.997936 0.138027 -1.556567
F -1.507483 1.048083 0.250796
F -1.366987 -1.040080 0.189770
S 0.855894 -0.100285 0.259506
O 0.847056 -0.329069 1.740429
O 1.420546 -1.180117 -0.663464
O 1.218817 1.382638 -0.073687
H 2.198344 1.700265 0.328109
9
Time step 875
C -0.980842 0.062252 -0.289266
F -0.998946 0.137826 -1.556479
F -1.506158 1.047704 0.250914
F -1.366984 -1.039817 0.189420
S 0.855721 -0.100618 0.260213
O 0.846086 -0.329280 1.739667
O 1.421408 -1.180598 -0.663472
O 1.219045 1.384344 -0.073860
H 2.190393 1.696256 0.321825
9
Time step 876
C -0.980329 0.062625 -0.289130
F -0.999960 0.137625 -1.556409
F -1.504845 1.047344 0.251042
F -1.366996 -1.039572 0.189074
S 0.855546 -0.100966 0.260921
O 0.845118 -0.329489 1.738892
O 1.422267 -1.181063 -0.663467
O 1.219296 1.386068 -0.074029
H 2.182152 1.692141 0.315428
9
Time step 877
C -0.979774 0.062994 -0.288988
F -1.000976 0.137422 -1.556356
F -1.503544 1.047004 0.251181
F -1.367024 -1.039346 0.188734
S 0.855369 -0.101327 0.261630
O 0.844154 -0.329695 1.738107
O 1.423125 -1.181510 -0.663452
O 1.219571 1.387809 -0.074195
H 2.173639 1.687927 0.308928
9
Time step 878
C -0.979178 0.063362 -0.288842
F -1.001995 0.137217 -1.556321
F -1.502255 1.046683 0.251330
F -1.367065 -1.039139 0.188398
S 0.855190 -0.101702 0.262338
O 0.843193 -0.329898 1.737311
O 1.423982 -1.181941 -0.663423
O 1.219868 1.389566 -0.074358
H 2.164876 1.683620 0.302334
9
Time step 879
C -0.978543 0.063726 -0.288691
F -1.003017 0.137012 -1.556303
F -1.500977 1.046381 0.251491
F -1.367121 -1.038950 0.188068
S 0.855008 -0.102091 0.263045
O 0.842235 -0.330098 1.736504
O 1.424836 -1.182353 -0.663382
O 1.220186 1.391338 -0.074519
H 2.155885 1.679227 0.295657
9
Time step 880
C -0.977867 0.064086 -0.288537
F -1.004041 0.136805 -1.556301
F -1.499712 1.046099 0.251663
F -1.367189 -1.038780 0.187741
S 0.854824 -0.102493 0.263752
O 0.841280 -0.330295 1.735688
O 1.425689 -1.182748 -0.663328
O 1.220524 1.393125 -0.074678
H 2.146692 1.674758 0.288904
9
Time step 881
C -0.977147 0.064438 -0.288379
F -1.005069 0.136598 -1.556315
F -1.498460 1.045838 0.251846
F -1.367271 -1.038628 0.187419
S 0.854637 -0.102908 0.264458
O 0.840328 -0.330490 1.734861
O 1.426539 -1.183127 -0.663262
O 1.220879 1.394924 -0.074837
H 2.137327 1.670223 0.282089
9
Time step 882
C -0.976384 0.064779 -0.288215
F -1.006100 0.136391 -1.556345
F -1.497222 1.045598 0.252040
F -1.367364 -1.038493 0.187100
S 0.854448 -0.103336 0.265163
O 0.839380 -0.330682 1.734026
O 1.427386 -1.183488 -0.663182
O 1.221250 1.396737 -0.074997
H 2.127824 1.665634 0.275221
9
Time step 883
C -0.975575 0.065109 -0.288047
F -1.007135 0.136186 -1.556391
F -1.495999 1.045380 0.252245
F -1.367471 -1.038375 0.186784
S 0.854258 -0.103777 0.265867
O 0.838434 -0.330872 1.733183
O 1.428229 -1.183833 -0.663089
O 1.221634 1.398561 -0.075157
H 2.118219 1.661008 0.268316
9
Time step 884
C -0.974722 0.065427 -0.287873
F -1.008173 0.135981 -1.556454
F -1.494790 1.045183 0.252460
F -1.367589 -1.038275 0.186472
S 0.854065 -0.104231 0.266569
O 0.837491 -0.331059 1.732332
O 1.429070 -1.184162 -0.662984
O 1.222028 1.400395 -0.075320
H 2.108557 1.656361 0.261389
9
Time step 885
C -0.973828 0.065733 -0.287697
F -1.009215 0.135777 -1.556534
F -1.493594 1.045008 0.252688
F -1.367721 -1.038191 0.186165
S 0.853871 -0.104697 0.267269
O 0.836551 -0.331244 1.731475
O 1.429908 -1.184474 -0.662866
O 1.222430 1.402239 -0.075485
H 2.098885 1.651711 0.254460
9
Time step 886
C -0.972895 0.066030 -0.287521
F -1.010259 0.135572 -1.556630
F -1.492412 1.044854 0.252927
F -1.367865 -1.038125 0.185863
S 0.853675 -0.105175 0.267967
O 0.835615 -0.331427 1.730611
O 1.430743 -1.184770 -0.662736
O 1.222837 1.404090 -0.075655
H 2.089257 1.647076 0.247550
9
Time step 887
C -0.971925 0.066316 -0.287345
F -1.011305 0.135366 -1.556744
F -1.491243 1.044722 0.253179
F -1.368022 -1.038077 0.185567
S 0.853478 -0.105664 0.268662
O 0.834681 -0.331610 1.729743
O 1.431576 -1.185048 -0.662594
O 1.223246 1.405947 -0.075829
H 2.079731 1.642475 0.240681
9
Time step 888
C -0.970918 0.066592 -0.287170
F -1.012352 0.135158 -1.556873
F -1.490088 1.044612 0.253443
F -1.368193 -1.038047 0.185276
S 0.853280 -0.106163 0.269353
O 0.833750 -0.331791 1.728872
O 1.432404 -1.185308 -0.662441
O 1.223653 1.407808 -0.076009
H 2.070371 1.637925 0.233875
9
Time step 889
C -0.969872 0.066855 -0.286997
F -1.013401 0.134950 -1.557018
F -1.488946 1.044525 0.253720
F -1.368376 -1.038034 0.184990
S 0.853080 -0.106673 0.270041
O 0.832823 -0.331972 1.727997
O 1.433229 -1.185550 -0.662276
O 1.224053 1.409671 -0.076198
H 2.061243 1.633448 0.227155
9
Time step 890
C -0.968784 0.067102 -0.286824
F -1.014452 0.134742 -1.557178
F -1.487819 1.044461 0.254009
F -1.368574 -1.038039 0.184708
S 0.852879 -0.107194 0.270725
O 0.831899 -0.332151 1.727119
O 1.434050 -1.185774 -0.662099
O 1.224442 1.411535 -0.076396
H 2.052418 1.629061 0.220544
9
Time step 891
C -0.967654 0.067331 -0.286650
F -1.015506 0.134535 -1.557352
F -1.486706 1.044421 0.254308
F -1.368784 -1.038061 0.184431
S 0.852677 -0.107724 0.271405
O 0.830978 -0.332329 1.726238
O 1.434866 -1.185981 -0.661910
O 1.224814 1.413398 -0.076604
H 2.043971 1.624787 0.214065
9
Time step 892
C -0.966481 0.067543 -0.286474
F -1.016562 0.134329 -1.557542
F -1.485606 1.044404 0.254618
F -1.369007 -1.038100 0.184158
S 0.852474 -0.108266 0.272080
O 0.830061 -0.332505 1.725355
O 1.435677 -1.186171 -0.661708
O 1.225164 1.415259 -0.076825
H 2.035976 1.620643 0.207742
9
Time step 893
C -0.965264 0.067738 -0.286296
F -1.017620 0.134125 -1.557747
F -1.484520 1.044409 0.254940
F -1.369244 -1.038156 0.183888
S 0.852269 -0.108819 0.272750
O 0.829147 -0.332678 1.724469
O 1.436483 -1.186344 -0.661494
O 1.225485 1.417116 -0.077058
H 2.028515 1.616650 0.201601
9
Time step 894
C -0.964006 0.067920 -0.286118
F -1.018681 0.133922 -1.557967
F -1.483447 1.044437 0.255273
F -1.369492 -1.038229 0.183624
S 0.852064 -0.109382 0.273414
O 0.828237 -0.332848 1.723581
O 1.437284 -1.186500 -0.661266
O 1.225773 1.418969 -0.077305
H 2.021669 1.612824 0.195667
9
Time step 895
C -0.962706 0.068092 -0.285942
F -1.019745 0.133718 -1.558203
F -1.482387 1.044487 0.255618
F -1.369753 -1.038320 0.183364
S 0.851858 -0.109957 0.274073
O 0.827330 -0.333017 1.722691
O 1.438079 -1.186638 -0.661025
O 1.226023 1.420816 -0.077567
H 2.015519 1.609185 0.189967
9
Time step 896
C -0.961365 0.068255 -0.285769
F -1.020811 0.133513 -1.558455
F -1.481340 1.044557 0.255975
F -1.370027 -1.038429 0.183109
S 0.851651 -0.110541 0.274726
O 0.826427 -0.333183 1.721799
O 1.438869 -1.186759 -0.660770
O 1.226231 1.422655 -0.077845
H 2.010146 1.605749 0.184525
9
Time step 897
C -0.959983 0.068410 -0.285601
F -1.021879 0.133307 -1.558720
F -1.480306 1.044649 0.256346
F -1.370313 -1.038556 0.182860
S 0.851442 -0.111136 0.275373
O 0.825527 -0.333348 1.720907
O 1.439654 -1.186861 -0.660503
O 1.226391 1.424485 -0.078141
H 2.005629 1.602531 0.179364
9
Time step 898
C -0.958558 0.068556 -0.285436
F -1.022950 0.133100 -1.559000
F -1.479286 1.044763 0.256728
F -1.370613 -1.038701 0.182615
S 0.851233 -0.111742 0.276012
O 0.824631 -0.333510 1.720014
O 1.440433 -1.186946 -0.660222
O 1.226499 1.426304 -0.078456
H 2.002039 1.599548 0.174502
9
Time step 899
C -0.957091 0.068691 -0.285274
F -1.024022 0.132892 -1.559294
F -1.478279 1.044899 0.257123
F -1.370926 -1.038865 0.182375
S 0.851022 -0.112357 0.276644
O 0.823739 -0.333670 1.719121
O 1.441207 -1.187011 -0.659927
O 1.226551 1.428110 -0.078792
H 1.999438 1.596811 0.169957
9
Time step 900
C -0.955583 0.068813 -0.285113
F -1.025096 0.132683 -1.559600
F -1.477286 1.045058 0.257531
F -1.371253 -1.039046 0.182138
S 0.850810 -0.112983 0.277268
O 0.822850 -0.333828 1.718229
O 1.441977 -1.187058 -0.659619
O 1.226544 1.429904 -0.079149
H 1.997876 1.594329 0.165741
9
Time step 901
C -0.954037 0.068922 -0.284953
F -1.026171 0.132474 -1.559921
F -1.476305 1.045239 0.257950
F -1.371592 -1.039243 0.181906
S 0.850598 -0.113619 0.277884
O 0.821964 -0.333984 1.717337
O 1.442742 -1.187084 -0.659297
O 1.226475 1.431684 -0.079528
H 1.997389 1.592106 0.161861
9
Time step 902
C -0.952454 0.069018 -0.284790
F -1.027247 0.132264 -1.560257
F -1.475336 1.045443 0.258381
F -1.371945 -1.039458 0.181677
S 0.850385 -0.114265 0.278492
O 0.821082 -0.334137 1.716446
O 1.443503 -1.187091 -0.658962
O 1.226344 1.433450 -0.079928
H 1.998000 1.590141 0.158320
9
Time step 903
C -0.950838 0.069102 -0.284625
F -1.028324 0.132053 -1.560607
F -1.474380 1.045668 0.258824
F -1.372309 -1.039687 0.181453
S 0.850171 -0.114922 0.279092
O 0.820202 -0.334288 1.715556
O 1.444260 -1.187079 -0.658614
O 1.226150 1.435203 -0.080349
H 1.999714 1.588429 0.155116
9
Time step 904
C -0.949190 0.069173 -0.284457
F -1.029402 0.131841 -1.560973
F -1.473437 1.045913 0.259278
F -1.372684 -1.039932 0.181233
S 0.849958 -0.115589 0.279682
O 0.819324 -0.334437 1.714666
O 1.445012 -1.187047 -0.658252
O 1.225894 1.436942 -0.080791
H 2.002525 1.586962 0.152243
9
Time step 905
C -0.947509 0.069231 -0.284288
F -1.030480 0.131629 -1.561353
F -1.472507 1.046179 0.259743
F -1.373071 -1.040192 0.181019
S 0.849744 -0.116265 0.280264
O 0.818450 -0.334585 1.713779
O 1.445760 -1.186996 -0.657877
O 1.225578 1.438668 -0.081253
H 2.006414 1.585729 0.149686
9
Time step 906
C -0.945796 0.069276 -0.284118
F -1.031560 0.131418 -1.561748
F -1.471590 1.046465 0.260218
F -1.373469 -1.040466 0.180809
S 0.849530 -0.116949 0.280837
O 0.817578 -0.334732 1.712894
O 1.446503 -1.186926 -0.657489
O 1.225203 1.440381 -0.081733
H 2.011351 1.584717 0.147430
9
Time step 907
C -0.944050 0.069306 -0.283949
F -1.032641 0.131207 -1.562156
F -1.470685 1.046771 0.260704
F -1.373878 -1.040756 0.180604
S 0.849316 -0.117641 0.281401
O 0.816709 -0.334878 1.712013
O 1.447242 -1.186839 -0.657088
O 1.224771 1.442081 -0.082232
H 2.017296 1.583913 0.145457
9
Time step 908
C -0.942270 0.069321 -0.283782
F -1.033723 0.130997 -1.562576
F -1.469793 1.047099 0.261202
F -1.374297 -1.041061 0.180403
S 0.849101 -0.118340 0.281955
O 0.815843 -0.335023 1.711137
O 1.447976 -1.186734 -0.656674
O 1.224286 1.443769 -0.082748
H 2.024201 1.583304 0.143745
9
Time step 909
C -0.940458 0.069319 -0.283619
F -1.034806 0.130788 -1.563009
F -1.468913 1.047447 0.261711
F -1.374727 -1.041381 0.180206
S 0.848886 -0.119045 0.282500
O 0.814980 -0.335169 1.710266
O 1.448706 -1.186613 -0.656247
O 1.223750 1.445446 -0.083280
H 2.032008 1.582878 0.142275
9
Time step 910
C -0.938615 0.069302 -0.283461
F -1.035890 0.130578 -1.563455
F -1.468045 1.047816 0.262233
F -1.375167 -1.041716 0.180013
S 0.848670 -0.119757 0.283034
O 0.814119 -0.335313 1.709401
O 1.449432 -1.186474 -0.655806
O 1.223168 1.447112 -0.083825
H 2.040654 1.582620 0.141024
9
Time step 911
C -0.936741 0.069268 -0.283306
F -1.036976 0.130368 -1.563912
F -1.467189 1.048206 0.262767
F -1.375617 -1.042063 0.179822
S 0.848454 -0.120475 0.283557
O 0.813261 -0.335458 1.708544
O 1.450152 -1.186318 -0.655352
O 1.222545 1.448768 -0.084383
H 2.050064 1.582518 0.139972
9
Time step 912
C -0.934838 0.069217 -0.283156
F -1.038063 0.130158 -1.564380
F -1.466344 1.048617 0.263313
F -1.376077 -1.042424 0.179636
S 0.848238 -0.121199 0.284069
O 0.812406 -0.335603 1.707695
O 1.450869 -1.186145 -0.654884
O 1.221886 1.450414 -0.084951
H 2.060162 1.582556 0.139096
9
Time step 913
C -0.932906 0.069150 -0.283009
F -1.039152 0.129947 -1.564860
F -1.465512 1.049047 0.263870
F -1.376547 -1.042798 0.179453
S 0.848022 -0.121930 0.284568
O 0.811554 -0.335747 1.706854
O 1.451581 -1.185955 -0.654403
O 1.221195 1.452050 -0.085527
H 2.070866 1.582722 0.138373
9
Time step 914
C -0.930945 0.069067 -0.282866
F -1.040241 0.129737 -1.565351
F -1.464691 1.049497 0.264438
F -1.377028 -1.043185 0.179273
S 0.847807 -0.122666 0.285054
O 0.810706 -0.335891 1.706022
O 1.452290 -1.185747 -0.653909
O 1.220477 1.453678 -0.086111
H 2.082091 1.582999 0.137778
9
Time step 915
C -0.928954 0.068970 -0.282725
F -1.041331 0.129528 -1.565852
F -1.463881 1.049967 0.265015
F -1.377521 -1.043586 0.179098
S 0.847592 -0.123409 0.285528
O 0.809861 -0.336036 1.705200
O 1.452995 -1.185521 -0.653400
O 1.219736 1.455297 -0.086700
H 2.093754 1.583375 0.137286
9
Time step 916
C -0.926936 0.068859 -0.282588
F -1.042422 0.129320 -1.566363
F -1.463083 1.050457 0.265601
F -1.378025 -1.044002 0.178927
S 0.847377 -0.124157 0.285988
O 0.809021 -0.336180 1.704386
O 1.453696 -1.185278 -0.652878
O 1.218978 1.456908 -0.087293
H 2.105776 1.583835 0.136871
9
Time step 917
C -0.924890 0.068737 -0.282453
F -1.043512 0.129113 -1.566885
F -1.462295 1.050965 0.266198
F -1.378540 -1.044433 0.178760
S 0.847163 -0.124911 0.286436
O 0.808184 -0.336325 1.703582
O 1.454394 -1.185018 -0.652341
O 1.218207 1.458512 -0.087889
H 2.118081 1.584366 0.136512
9
Time step 918
C -0.922818 0.068604 -0.282323
F -1.044603 0.128907 -1.567418
F -1.461517 1.051492 0.266805
F -1.379067 -1.044879 0.178596
S 0.846950 -0.125670 0.286872
O 0.807351 -0.336471 1.702787
O 1.455088 -1.184742 -0.651790
O 1.217427 1.460109 -0.088487
H 2.130599 1.584957 0.136187
9
Time step 919
C -0.920722 0.068462 -0.282197
F -1.045693 0.128701 -1.567961
F -1.460749 1.052038 0.267423
F -1.379604 -1.045341 0.178437
S 0.846737 -0.126435 0.287295
O 0.806522 -0.336616 1.702000
O 1.455777 -1.184448 -0.651224
O 1.216643 1.461701 -0.089086
H 2.143262 1.585599 0.135880
9
Time step 920
C -0.918604 0.068310 -0.282074
F -1.046783 0.128494 -1.568514
F -1.459991 1.052602 0.268051
F -1.380150 -1.045816 0.178280
S 0.846525 -0.127205 0.287704
O 0.805695 -0.336762 1.701223
O 1.456461 -1.184136 -0.650643
O 1.215858 1.463287 -0.089685
H 2.156011 1.586281 0.135579
9
Time step 921
C -0.916463 0.068145 -0.281956
F -1.047872 0.128287 -1.569075
F -1.459244 1.053183 0.268690
F -1.380705 -1.046303 0.178126
S 0.846316 -0.127982 0.288101
O 0.804871 -0.336908 1.700455
O 1.457140 -1.183807 -0.650048
O 1.215077 1.464868 -0.090283
H 2.168788 1.586996 0.135272
9
Time step 922
C -0.914299 0.067967 -0.281841
F -1.048960 0.128080 -1.569644
F -1.458506 1.053781 0.269338
F -1.381269 -1.046801 0.177975
S 0.846107 -0.128764 0.288483
O 0.804049 -0.337054 1.699697
O 1.457812 -1.183459 -0.649439
O 1.214302 1.466444 -0.090880
H 2.181541 1.587736 0.134953
9
Time step 923
C -0.912114 0.067774 -0.281729
F -1.050047 0.127873 -1.570220
F -1.457777 1.054394 0.269995
F -1.381842 -1.047309 0.177826
S 0.845901 -0.129552 0.288852
O 0.803229 -0.337199 1.698950
O 1.458478 -1.183093 -0.648816
O 1.213536 1.468015 -0.091474
H 2.194224 1.588493 0.134613
9
Time step 924
C -0.909907 0.067568 -0.281619
F -1.051135 0.127666 -1.570804
F -1.457057 1.055024 0.270660
F -1.382423 -1.047826 0.177679
S 0.845698 -0.130346 0.289206
O 0.802411 -0.337344 1.698214
O 1.459137 -1.182707 -0.648179
O 1.212780 1.469581 -0.092065
H 2.206793 1.589258 0.134248
9
Time step 925
C -0.907679 0.067350 -0.281510
F -1.052222 0.127459 -1.571395
F -1.456346 1.055668 0.271332
F -1.383012 -1.048354 0.177536
S 0.845497 -0.131144 0.289546
O 0.801595 -0.337489 1.697491
O 1.459791 -1.182304 -0.647530
O 1.212038 1.471140 -0.092653
H 2.219210 1.590024 0.133849
9
Time step 926
C -0.905431 0.067122 -0.281401
F -1.053309 0.127252 -1.571997
F -1.455643 1.056326 0.272012
F -1.383611 -1.048892 0.177395
S 0.845299 -0.131946 0.289872
O 0.800780 -0.337634 1.696780
O 1.460438 -1.181882 -0.646868
O 1.211310 1.472693 -0.093236
H 2.231440 1.590782 0.133412
9
Time step 927
C -0.903168 0.066884 -0.281293
F -1.054397 0.127046 -1.572608
F -1.454948 1.056999 0.272700
F -1.384217 -1.049441 0.177259
S 0.845105 -0.132752 0.290183
O 0.799968 -0.337781 1.696082
O 1.461080 -1.181442 -0.646193
O 1.210599 1.474240 -0.093815
H 2.243451 1.591527 0.132930
9
Time step 928
C -0.900890 0.066636 -0.281185
F -1.055484 0.126840 -1.573229
F -1.454260 1.057686 0.273395
F -1.384831 -1.050001 0.177126
S 0.844915 -0.133560 0.290481
O 0.799158 -0.337928 1.695397
O 1.461716 -1.180985 -0.645504
O 1.209907 1.475781 -0.094390
H 2.255213 1.592253 0.132396
9
Time step 929
C -0.898601 0.066378 -0.281079
F -1.056571 0.126634 -1.573859
F -1.453579 1.058388 0.274097
F -1.385454 -1.050572 0.176996
S 0.844729 -0.134371 0.290763
O 0.798350 -0.338078 1.694727
O 1.462347 -1.180511 -0.644803
O 1.209236 1.477316 -0.094959
H 2.266698 1.592957 0.131803
9
Time step 930
C -0.896302 0.066108 -0.280976
F -1.057655 0.126428 -1.574496
F -1.452905 1.059103 0.274807
F -1.386084 -1.051153 0.176869
S 0.844547 -0.135184 0.291030
O 0.797545 -0.338228 1.694070
O 1.462972 -1.180020 -0.644089
O 1.208586 1.478845 -0.095522
H 2.277879 1.593636 0.131145
9
Time step 931
C -0.893995 0.065827 -0.280877
F -1.058736 0.126224 -1.575139
F -1.452237 1.059832 0.275523
F -1.386721 -1.051744 0.176745
S 0.844368 -0.135999 0.291282
O 0.796743 -0.338380 1.693429
O 1.463592 -1.179513 -0.643361
O 1.207960 1.480368 -0.096080
H 2.288732 1.594289 0.130417
9
Time step 932
C -0.891680 0.065534 -0.280782
F -1.059815 0.126019 -1.575787
F -1.451575 1.060574 0.276247
F -1.387366 -1.052343 0.176623
S 0.844193 -0.136817 0.291518
O 0.795943 -0.338533 1.692804
O 1.464206 -1.178990 -0.642622
O 1.207357 1.481886 -0.096631
H 2.299236 1.594915 0.129612
9
Time step 933
C -0.889356 0.065231 -0.280692
F -1.060890 0.125814 -1.576439
F -1.450919 1.061329 0.276978
F -1.388018 -1.052951 0.176502
S 0.844022 -0.137636 0.291737
O 0.795145 -0.338687 1.692197
O 1.464814 -1.178451 -0.641871
O 1.206779 1.483398 -0.097176
H 2.309373 1.595513 0.128725
9
Time step 934
C -0.887023 0.064920 -0.280607
F -1.061963 0.125608 -1.577096
F -1.450270 1.062096 0.277717
F -1.388677 -1.053567 0.176383
S 0.843854 -0.138458 0.291941
O 0.794351 -0.338842 1.691607
O 1.465418 -1.177897 -0.641108
O 1.206228 1.484904 -0.097714
H 2.319126 1.596081 0.127753
9
Time step 935
C -0.884680 0.064600 -0.280527
F -1.063034 0.125402 -1.577758
F -1.449628 1.062875 0.278462
F -1.389344 -1.054192 0.176266
S 0.843690 -0.139282 0.292128
O 0.793559 -0.338998 1.691037
O 1.466016 -1.177328 -0.640334
O 1.205703 1.486404 -0.098245
H 2.328482 1.596618 0.126692
9
Time step 936
C -0.882327 0.064272 -0.280453
F -1.064103 0.125196 -1.578424
F -1.448992 1.063667 0.279215
F -1.390018 -1.054826 0.176150
S 0.843529 -0.140107 0.292298
O 0.792770 -0.339156 1.690485
O 1.466608 -1.176743 -0.639548
O 1.205206 1.487898 -0.098768
H 2.337428 1.597123 0.125539
9
Time step 937
C -0.879966 0.063933 -0.280386
F -1.065170 0.124991 -1.579095
F -1.448363 1.064471 0.279974
F -1.390699 -1.055468 0.176037
S 0.843373 -0.140933 0.292452
O 0.791983 -0.339315 1.689952
O 1.467197 -1.176144 -0.638749
O 1.204738 1.489385 -0.099284
H 2.345953 1.597597 0.124292
9
Time step 938
C -0.877600 0.063582 -0.280326
F -1.066236 0.124787 -1.579771
F -1.447739 1.065288 0.280740
F -1.391386 -1.056119 0.175926
S 0.843222 -0.141759 0.292590
O 0.791197 -0.339476 1.689438
O 1.467780 -1.175529 -0.637939
O 1.204299 1.490865 -0.099792
H 2.354047 1.598038 0.122951
9
Time step 939
C -0.875229 0.063216 -0.280273
F -1.067301 0.124584 -1.580450
F -1.447120 1.066117 0.281512
F -1.392080 -1.056778 0.175818
S 0.843076 -0.142587 0.292711
O 0.790414 -0.339639 1.688943
O 1.468359 -1.174899 -0.637116
O 1.203890 1.492339 -0.100292
H 2.361699 1.598447 0.121514
9
Time step 940
C -0.872859 0.062838 -0.280226
F -1.068364 0.124382 -1.581132
F -1.446505 1.066957 0.282289
F -1.392781 -1.057443 0.175711
S 0.842934 -0.143415 0.292816
O 0.789632 -0.339804 1.688465
O 1.468933 -1.174252 -0.636281
O 1.203512 1.493806 -0.100784
H 2.368901 1.598823 0.119980
9
Time step 941
C -0.870489 0.062448 -0.280182
F -1.069424 0.124181 -1.581819
F -1.445893 1.067806 0.283072
F -1.393487 -1.058115 0.175606
S 0.842796 -0.144244 0.292905
O 0.788852 -0.339970 1.688006
O 1.469503 -1.173590 -0.635434
O 1.203166 1.495265 -0.101269
H 2.375644 1.599167 0.118351
9
Time step 942
C -0.868122 0.062049 -0.280140
F -1.070483 0.123981 -1.582509
F -1.445284 1.068664 0.283858
F -1.394199 -1.058793 0.175502
S 0.842664 -0.145074 0.292978
O 0.788074 -0.340137 1.687564
O 1.470069 -1.172912 -0.634575
O 1.202851 1.496717 -0.101745
H 2.381923 1.599477 0.116626
9
Time step 943
C -0.865758 0.061644 -0.280097
F -1.071539 0.123780 -1.583203
F -1.444678 1.069528 0.284648
F -1.394916 -1.059475 0.175399
S 0.842536 -0.145904 0.293035
O 0.787298 -0.340306 1.687140
O 1.470631 -1.172219 -0.633705
O 1.202569 1.498160 -0.102213
H 2.387731 1.599753 0.114804
9
Time step 944
C -0.863399 0.061234 -0.280055
F -1.072593 0.123580 -1.583901
F -1.444076 1.070400 0.285442
F -1.395639 -1.060163 0.175297
S 0.842413 -0.146734 0.293075
O 0.786524 -0.340477 1.686735
O 1.471189 -1.171511 -0.632824
O 1.202318 1.499595 -0.102674
H 2.393066 1.599996 0.112888
9
Time step 945
C -0.861045 0.060818 -0.280015
F -1.073643 0.123380 -1.584602
F -1.443478 1.071277 0.286239
F -1.396365 -1.060855 0.175197
S 0.842295 -0.147565 0.293099
O 0.785751 -0.340650 1.686348
O 1.471743 -1.170789 -0.631931
O 1.202100 1.501021 -0.103126
H 2.397926 1.600204 0.110878
9
Time step 946
C -0.858697 0.060396 -0.279979
F -1.074691 0.123182 -1.585305
F -1.442883 1.072161 0.287039
F -1.397096 -1.061553 0.175099
S 0.842183 -0.148394 0.293106
O 0.784981 -0.340825 1.685979
O 1.472293 -1.170052 -0.631027
O 1.201915 1.502438 -0.103569
H 2.402311 1.600379 0.108776
9
Time step 947
C -0.856356 0.059967 -0.279949
F -1.075734 0.122984 -1.586009
F -1.442292 1.073052 0.287844
F -1.397832 -1.062255 0.175004
S 0.842075 -0.149223 0.293096
O 0.784211 -0.341002 1.685630
O 1.472839 -1.169303 -0.630111
O 1.201761 1.503846 -0.104005
H 2.406219 1.600521 0.106586
9
Time step 948
C -0.854023 0.059533 -0.279926
F -1.076774 0.122786 -1.586715
F -1.441703 1.073949 0.288653
F -1.398571 -1.062964 0.174910
S 0.841973 -0.150050 0.293067
O 0.783444 -0.341181 1.685300
O 1.473380 -1.168540 -0.629183
O 1.201638 1.505244 -0.104432
H 2.409651 1.600630 0.104309
9
Time step 949
C -0.851698 0.059093 -0.279909
F -1.077810 0.122589 -1.587421
F -1.441115 1.074852 0.289466
F -1.399315 -1.063677 0.174818
S 0.841876 -0.150875 0.293021
O 0.782678 -0.341361 1.684990
O 1.473916 -1.167764 -0.628243
O 1.201548 1.506633 -0.104851
H 2.412607 1.600708 0.101949
9
Time step 950
C -0.849382 0.058649 -0.279894
F -1.078842 0.122392 -1.588129
F -1.440529 1.075761 0.290283
F -1.400062 -1.064396 0.174726
S 0.841785 -0.151699 0.292957
O 0.781913 -0.341543 1.684699
O 1.474447 -1.166974 -0.627292
O 1.201488 1.508011 -0.105262
H 2.415088 1.600754 0.099508
9
Time step 951
C -0.847077 0.058201 -0.279882
F -1.079872 0.122193 -1.588839
F -1.439944 1.076675 0.291104
F -1.400814 -1.065120 0.174634
S 0.841699 -0.152521 0.292876
O 0.781150 -0.341726 1.684428
O 1.474973 -1.166171 -0.626330
O 1.201461 1.509379 -0.105664
H 2.417094 1.600768 0.096987
9
Time step 952
C -0.844784 0.057749 -0.279870
F -1.080899 0.121994 -1.589549
F -1.439360 1.077593 0.291927
F -1.401568 -1.065847 0.174541
S 0.841619 -0.153341 0.292778
O 0.780389 -0.341910 1.684178
O 1.475495 -1.165355 -0.625358
O 1.201465 1.510736 -0.106058
H 2.418624 1.600752 0.094385
9
Time step 953
C -0.842506 0.057293 -0.279861
F -1.081922 0.121795 -1.590260
F -1.438775 1.078515 0.292751
F -1.402326 -1.066577 0.174448
S 0.841545 -0.154159 0.292664
O 0.779630 -0.342095 1.683947
O 1.476012 -1.164525 -0.624376
O 1.201500 1.512081 -0.106443
H 2.419679 1.600704 0.091702
9
Time step 954
C -0.840245 0.056830 -0.279857
F -1.082941 0.121596 -1.590969
F -1.438191 1.079441 0.293578
F -1.403086 -1.067309 0.174355
S 0.841478 -0.154975 0.292534
O 0.778873 -0.342282 1.683736
O 1.476524 -1.163683 -0.623385
O 1.201565 1.513416 -0.106821
H 2.420256 1.600625 0.088935
9
Time step 955
C -0.838002 0.056360 -0.279861
F -1.083954 0.121398 -1.591677
F -1.437607 1.080370 0.294406
F -1.403848 -1.068044 0.174263
S 0.841417 -0.155788 0.292389
O 0.778117 -0.342472 1.683544
O 1.477033 -1.162829 -0.622385
O 1.201661 1.514739 -0.107190
H 2.420356 1.600516 0.086085
9
Time step 956
C -0.835780 0.055883 -0.279875
F -1.084962 0.121201 -1.592381
F -1.437022 1.081304 0.295237
F -1.404613 -1.068780 0.174172
S 0.841362 -0.156598 0.292227
O 0.777361 -0.342664 1.683373
O 1.477539 -1.161964 -0.621376
O 1.201788 1.516051 -0.107552
H 2.419979 1.600377 0.083153
9
Time step 957
C -0.833579 0.055400 -0.279900
F -1.085964 0.121004 -1.593082
F -1.436436 1.082241 0.296070
F -1.405380 -1.069520 0.174083
S 0.841314 -0.157404 0.292051
O 0.776606 -0.342858 1.683222
O 1.478040 -1.161088 -0.620359
O 1.201945 1.517353 -0.107907
H 2.419122 1.600208 0.080140
9
Time step 958
C -0.831399 0.054914 -0.279934
F -1.086962 0.120808 -1.593781
F -1.435850 1.083181 0.296905
F -1.406148 -1.070263 0.173995
S 0.841272 -0.158207 0.291859
O 0.775852 -0.343056 1.683091
O 1.478539 -1.160201 -0.619334
O 1.202134 1.518645 -0.108255
H 2.417787 1.600011 0.077050
9
Time step 959
C -0.829241 0.054427 -0.279975
F -1.087954 0.120612 -1.594479
F -1.435264 1.084125 0.297742
F -1.406918 -1.071010 0.173909
S 0.841237 -0.159007 0.291651
O 0.775099 -0.343257 1.682981
O 1.479034 -1.159304 -0.618301
O 1.202355 1.519926 -0.108597
H 2.415971 1.599785 0.073888
9
Time step 960
C -0.827106 0.053938 -0.280021
F -1.088941 0.120415 -1.595175
F -1.434677 1.085073 0.298580
F -1.407690 -1.071761 0.173822
S 0.841208 -0.159804 0.291429
O 0.774348 -0.343460 1.682892
O 1.479526 -1.158396 -0.617261
O 1.202608 1.521197 -0.108931
H 2.413674 1.599532 0.070658
9
Time step 961
C -0.824995 0.053448 -0.280071
F -1.089924 0.120218 -1.595872
F -1.434090 1.086023 0.299420
F -1.408464 -1.072514 0.173736
S 0.841185 -0.160599 0.291193
O 0.773598 -0.343665 1.682824
O 1.480016 -1.157478 -0.616214
O 1.202893 1.522458 -0.109260
H 2.410895 1.599253 0.067364
9
Time step 962
C -0.822909 0.052954 -0.280125
F -1.090902 0.120021 -1.596566
F -1.433502 1.086975 0.300260
F -1.409239 -1.073268 0.173650
S 0.841169 -0.161391 0.290942
O 0.772851 -0.343871 1.682777
O 1.480503 -1.156549 -0.615162
O 1.203209 1.523708 -0.109582
H 2.407632 1.598950 0.064007
9
Time step 963
C -0.820851 0.052454 -0.280183
F -1.091875 0.119825 -1.597259
F -1.432912 1.087929 0.301100
F -1.410016 -1.074023 0.173563
S 0.841160 -0.162180 0.290677
O 0.772105 -0.344079 1.682750
O 1.480989 -1.155611 -0.614103
O 1.203557 1.524947 -0.109898
H 2.403886 1.598622 0.060588
9
Time step 964
C -0.818820 0.051947 -0.280246
F -1.092841 0.119630 -1.597949
F -1.432320 1.088883 0.301941
F -1.410794 -1.074777 0.173476
S 0.841158 -0.162966 0.290399
O 0.771362 -0.344288 1.682742
O 1.481472 -1.154664 -0.613038
O 1.203935 1.526176 -0.110208
H 2.399656 1.598271 0.057104
9
Time step 965
C -0.816816 0.051435 -0.280316
F -1.093803 0.119436 -1.598637
F -1.431725 1.089838 0.302783
F -1.411575 -1.075531 0.173389
S 0.841162 -0.163747 0.290107
O 0.770620 -0.344500 1.682754
O 1.481954 -1.153707 -0.611966
O 1.204344 1.527393 -0.110512
H 2.394945 1.597896 0.053554
9
Time step 966
C -0.814839 0.050918 -0.280391
F -1.094759 0.119242 -1.599320
F -1.431128 1.090792 0.303625
F -1.412359 -1.076284 0.173301
S 0.841172 -0.164524 0.289802
O 0.769879 -0.344714 1.682785
O 1.482435 -1.152742 -0.610888
O 1.204783 1.528599 -0.110811
H 2.389756 1.597498 0.049934
9
Time step 967
C -0.812890 0.050399 -0.280470
F -1.095711 0.119050 -1.600001
F -1.430527 1.091745 0.304466
F -1.413143 -1.077037 0.173212
S 0.841190 -0.165296 0.289484
O 0.769139 -0.344931 1.682836
O 1.482915 -1.151768 -0.609804
O 1.205253 1.529793 -0.111103
H 2.384094 1.597078 0.046245
9
Time step 968
C -0.810969 0.049880 -0.280553
F -1.096659 0.118858 -1.600679
F -1.429924 1.092697 0.305307
F -1.413930 -1.077792 0.173123
S 0.841213 -0.166064 0.289153
O 0.768401 -0.345150 1.682906
O 1.483393 -1.150786 -0.608714
O 1.205753 1.530975 -0.111389
H 2.377964 1.596634 0.042486
9
Time step 969
C -0.809080 0.049360 -0.280639
F -1.097601 0.118667 -1.601354
F -1.429318 1.093647 0.306146
F -1.414716 -1.078547 0.173033
S 0.841244 -0.166826 0.288809
O 0.767663 -0.345370 1.682996
O 1.483871 -1.149797 -0.607619
O 1.206283 1.532144 -0.111668
H 2.371373 1.596169 0.038661
9
Time step 970
C -0.807225 0.048839 -0.280729
F -1.098537 0.118477 -1.602025
F -1.428709 1.094597 0.306984
F -1.415502 -1.079302 0.172943
S 0.841281 -0.167584 0.288452
O 0.766927 -0.345592 1.683105
O 1.484348 -1.148800 -0.606521
O 1.206843 1.533299 -0.111941
H 2.364329 1.595683 0.034774
9
Time step 971
C -0.805407 0.048315 -0.280825
F -1.099467 0.118287 -1.602693
F -1.428096 1.095544 0.307821
F -1.416287 -1.080056 0.172852
S 0.841324 -0.168336 0.288082
O 0.766193 -0.345814 1.683233
O 1.484823 -1.147796 -0.605418
O 1.207431 1.534441 -0.112206
H 2.356839 1.595180 0.030828
9
Time step 972
C -0.803628 0.047788 -0.280927
F -1.100389 0.118098 -1.603356
F -1.427479 1.096488 0.308657
F -1.417071 -1.080806 0.172762
S 0.841375 -0.169082 0.287699
O 0.765460 -0.346037 1.683380
O 1.485297 -1.146786 -0.604311
O 1.208047 1.535567 -0.112464
H 2.348914 1.594662 0.026829
9
Time step 973
C -0.801888 0.047257 -0.281034
F -1.101303 0.117909 -1.604014
F -1.426858 1.097430 0.309492
F -1.417852 -1.081553 0.172670
S 0.841433 -0.169821 0.287303
O 0.764728 -0.346261 1.683545
O 1.485770 -1.145770 -0.603200
O 1.208688 1.536679 -0.112714
H 2.340566 1.594132 0.022779
9
Time step 974
C -0.800188 0.046724 -0.281147
F -1.102210 0.117720 -1.604667
F -1.426231 1.098367 0.310327
F -1.418633 -1.082296 0.172577
S 0.841498 -0.170554 0.286895
O 0.763997 -0.346486 1.683727
O 1.486240 -1.144748 -0.602085
O 1.209355 1.537774 -0.112957
H 2.331809 1.593590 0.018678
9
Time step 975
C -0.798527 0.046190 -0.281265
F -1.103111 0.117531 -1.605315
F -1.425599 1.099301 0.311160
F -1.419411 -1.083036 0.172483
S 0.841571 -0.171279 0.286475
O 0.763266 -0.346713 1.683927
O 1.486709 -1.143721 -0.600967
O 1.210045 1.538853 -0.113193
H 2.322662 1.593037 0.014526
9
Time step 976
C -0.796904 0.045656 -0.281387
F -1.104005 0.117341 -1.605957
F -1.424962 1.100231 0.311990
F -1.420189 -1.083775 0.172387
S 0.841651 -0.171996 0.286043
O 0.762535 -0.346942 1.684143
O 1.487176 -1.142688 -0.599845
O 1.210760 1.539916 -0.113423
H 2.313142 1.592475 0.010322
9
Time step 977
C -0.795321 0.045125 -0.281515
F -1.104894 0.117152 -1.606592
F -1.424320 1.101157 0.312818
F -1.420966 -1.084514 0.172289
S 0.841739 -0.172705 0.285602
O 0.761805 -0.347172 1.684375
O 1.487643 -1.141651 -0.598720
O 1.211497 1.540963 -0.113645
H 2.303273 1.591902 0.006065
9
Time step 978
C -0.793778 0.044596 -0.281649
F -1.105776 0.116963 -1.607222
F -1.423674 1.102079 0.313644
F -1.421742 -1.085254 0.172191
S 0.841834 -0.173405 0.285151
O 0.761075 -0.347404 1.684623
O 1.488111 -1.140609 -0.597593
O 1.212256 1.541994 -0.113862
H 2.293076 1.591321 0.001756
9
Time step 979
C -0.792275 0.044069 -0.281792
F -1.106652 0.116775 -1.607844
F -1.423022 1.102999 0.314466
F -1.422517 -1.085993 0.172092
S 0.841936 -0.174099 0.284691
O 0.760346 -0.347638 1.684886
O 1.488579 -1.139563 -0.596465
O 1.213035 1.543010 -0.114072
H 2.282574 1.590733 -0.002602
9
Time step 980
C -0.790815 0.043544 -0.281945
F -1.107522 0.116587 -1.608460
F -1.422365 1.103915 0.315286
F -1.423291 -1.086731 0.171992
S 0.842043 -0.174785 0.284223
O 0.759619 -0.347872 1.685165
O 1.489050 -1.138513 -0.595336
O 1.213834 1.544010 -0.114276
H 2.271789 1.590140 -0.007005
9
Time step 981
C -0.789398 0.043020 -0.282109
F -1.108385 0.116399 -1.609068
F -1.421703 1.104826 0.316104
F -1.424064 -1.087467 0.171892
S 0.842156 -0.175464 0.283746
O 0.758893 -0.348108 1.685458
O 1.489524 -1.137462 -0.594207
O 1.214649 1.544996 -0.114474
H 2.260746 1.589548 -0.011447
9
Time step 982
C -0.788027 0.042498 -0.282285
F -1.109240 0.116210 -1.609668
F -1.421035 1.105733 0.316920
F -1.424834 -1.088200 0.171792
S 0.842274 -0.176136 0.283263
O 0.758170 -0.348344 1.685765
O 1.490000 -1.136408 -0.593078
O 1.215480 1.545968 -0.114667
H 2.249472 1.588960 -0.015922
9
Time step 983
C -0.786704 0.041978 -0.282472
F -1.110088 0.116022 -1.610261
F -1.420362 1.106635 0.317734
F -1.425602 -1.088929 0.171691
S 0.842398 -0.176801 0.282771
O 0.757448 -0.348581 1.686086
O 1.490479 -1.135353 -0.591949
O 1.216323 1.546926 -0.114854
H 2.237999 1.588380 -0.020425
9
Time step 984
C -0.785430 0.041459 -0.282669
F -1.110928 0.115832 -1.610847
F -1.419682 1.107533 0.318547
F -1.426365 -1.089654 0.171589
S 0.842526 -0.177460 0.282273
O 0.756729 -0.348819 1.686420
O 1.490962 -1.134297 -0.590821
O 1.217178 1.547868 -0.115036
H 2.226362 1.587811 -0.024950
9
Time step 985
C -0.784208 0.040943 -0.282876
F -1.111759 0.115643 -1.611426
F -1.418996 1.108425 0.319357
F -1.427126 -1.090375 0.171486
S 0.842661 -0.178111 0.281769
O 0.756012 -0.349058 1.686768
O 1.491447 -1.133239 -0.589693
O 1.218040 1.548795 -0.115214
H 2.214605 1.587258 -0.029495
9
Time step 986
C -0.783037 0.040429 -0.283092
F -1.112583 0.115454 -1.611998
F -1.418303 1.109312 0.320165
F -1.427882 -1.091093 0.171381
S 0.842801 -0.178755 0.281260
O 0.755296 -0.349298 1.687128
O 1.491936 -1.132180 -0.588567
O 1.218908 1.549705 -0.115389
H 2.202773 1.586721 -0.034055
9
Time step 987
C -0.781916 0.039917 -0.283315
F -1.113398 0.115265 -1.612562
F -1.417605 1.110195 0.320970
F -1.428636 -1.091808 0.171275
S 0.842947 -0.179389 0.280745
O 0.754583 -0.349539 1.687500
O 1.492428 -1.131121 -0.587442
O 1.219778 1.550598 -0.115560
H 2.190920 1.586205 -0.038628
9
Time step 988
C -0.780843 0.039405 -0.283546
F -1.114205 0.115078 -1.613119
F -1.416901 1.111072 0.321771
F -1.429388 -1.092520 0.171169
S 0.843099 -0.180014 0.280225
O 0.753870 -0.349782 1.687884
O 1.492925 -1.130063 -0.586320
O 1.220647 1.551474 -0.115729
H 2.179099 1.585712 -0.043210
9
Time step 989
C -0.779816 0.038895 -0.283781
F -1.115005 0.114890 -1.613669
F -1.416191 1.111943 0.322569
F -1.430138 -1.093228 0.171060
S 0.843257 -0.180630 0.279701
O 0.753158 -0.350026 1.688280
O 1.493425 -1.129005 -0.585202
O 1.221510 1.552332 -0.115895
H 2.167368 1.585246 -0.047796
9
Time step 990
C -0.778836 0.038385 -0.284020
F -1.115798 0.114703 -1.614213
F -1.415476 1.112808 0.323364
F -1.430886 -1.093933 0.170951
S 0.843421 -0.181234 0.279172
O 0.752445 -0.350272 1.688686
O 1.493929 -1.127950 -0.584088
O 1.222363 1.553172 -0.116059
H 2.155787 1.584812 -0.052381
9
Time step 991
C -0.777904 0.037878 -0.284261
F -1.116583 0.114516 -1.614750
F -1.414754 1.113667 0.324155
F -1.431631 -1.094633 0.170840
S 0.843591 -0.181828 0.278638
O 0.751733 -0.350519 1.689104
O 1.494438 -1.126898 -0.582978
O 1.223204 1.553994 -0.116221
H 2.144420 1.584413 -0.056958
9
Time step 992
C -0.777022 0.037373 -0.284503
F -1.117361 0.114328 -1.615282
F -1.414025 1.114518 0.324941
F -1.432373 -1.095328 0.170727
S 0.843767 -0.182411 0.278101
O 0.751020 -0.350768 1.689533
O 1.494952 -1.125849 -0.581873
O 1.224027 1.554798 -0.116379
H 2.133336 1.584054 -0.061522
9
Time step 993
C -0.776192 0.036869 -0.284747
F -1.118131 0.114141 -1.615807
F -1.413289 1.115363 0.325724
F -1.433110 -1.096018 0.170611
S 0.843948 -0.182984 0.277559
O 0.750308 -0.351017 1.689973
O 1.495471 -1.124805 -0.580773
O 1.224827 1.555584 -0.116536
H 2.122611 1.583738 -0.066066
9
Time step 994
C -0.775417 0.036367 -0.284995
F -1.118893 0.113953 -1.616324
F -1.412546 1.116200 0.326502
F -1.433842 -1.096701 0.170493
S 0.844134 -0.183546 0.277014
O 0.749597 -0.351266 1.690423
O 1.495995 -1.123765 -0.579679
O 1.225600 1.556352 -0.116690
H 2.112328 1.583467 -0.070587
9
Time step 995
C -0.774696 0.035866 -0.285248
F -1.119647 0.113766 -1.616833
F -1.411796 1.117029 0.327277
F -1.434570 -1.097380 0.170374
S 0.844325 -0.184098 0.276466
O 0.748887 -0.351514 1.690884
O 1.496525 -1.122729 -0.578592
O 1.226341 1.557100 -0.116843
H 2.102576 1.583242 -0.075082
9
Time step 996
C -0.774028 0.035366 -0.285509
F -1.120392 0.113580 -1.617334
F -1.411040 1.117850 0.328046
F -1.435294 -1.098053 0.170252
S 0.844520 -0.184638 0.275917
O 0.748180 -0.351763 1.691354
O 1.497061 -1.121698 -0.577511
O 1.227044 1.557829 -0.116994
H 2.093446 1.583067 -0.079549
9
Time step 997
C -0.773413 0.034869 -0.285778
F -1.121130 0.113395 -1.617826
F -1.410276 1.118662 0.328811
F -1.436014 -1.098721 0.170129
S 0.844719 -0.185167 0.275367
O 0.747474 -0.352011 1.691834
O 1.497604 -1.120671 -0.576437
O 1.227704 1.558538 -0.117144
H 2.085032 1.582941 -0.083989
9
Time step 998
C -0.772850 0.034376 -0.286055
F -1.121860 0.113211 -1.618309
F -1.409506 1.119465 0.329572
F -1.436731 -1.099384 0.170004
S 0.844922 -0.185685 0.274816
O 0.746770 -0.352259 1.692322
O 1.498152 -1.119650 -0.575372
O 1.228313 1.559228 -0.117292
H 2.077425 1.582867 -0.088403
9
Time step 999
C -0.772341 0.033888 -0.286338
F -1.122582 0.113026 -1.618783
F -1.408728 1.120258 0.330327
F -1.437443 -1.100042 0.169877
S 0.845129 -0.186192 0.274266
O 0.746068 -0.352507 1.692817
O 1.498708 -1.118635 -0.574314
O 1.228868 1.559898 -0.117440
H 2.070709 1.582846 -0.092795
9
Time step 1000
C -0.771888 0.033407 -0.286626
F -1.123296 0.112842 -1.619248
F -1.407941 1.121042 0.331077
F -1.438152 -1.100695 0.169748
S 0.845340 -0.186686 0.273718
O 0.745368 -0.352755 1.693319
O 1.499271 -1.117626 -0.573265
O 1.229362 1.560549 -0.117587
H 2.064962 1.582877 -0.097169
9
Time step 1001
C -0.771495 0.032931 -0.286921
F -1.124002 0.112657 -1.619705
F -1.407146 1.121816 0.331822
F -1.438856 -1.101343 0.169615
S 0.845554 -0.187169 0.273172
O 0.744669 -0.353003 1.693828
O 1.499843 -1.116623 -0.572226
O 1.229791 1.561181 -0.117732
H 2.060252 1.582961 -0.101529
9
Time step 1002
C -0.771162 0.032458 -0.287221
F -1.124700 0.112473 -1.620152
F -1.406340 1.122582 0.332561
F -1.439556 -1.101986 0.169480
S 0.845773 -0.187640 0.272628
O 0.743972 -0.353252 1.694342
O 1.500423 -1.115627 -0.571195
O 1.230153 1.561793 -0.117876
H 2.056635 1.583096 -0.105882
9
Time step 1003
C -0.770889 0.031988 -0.287530
F -1.125390 0.112288 -1.620590
F -1.405526 1.123339 0.333296
F -1.440251 -1.102622 0.169341
S 0.845995 -0.188098 0.272087
O 0.743277 -0.353499 1.694861
O 1.501013 -1.114639 -0.570175
O 1.230443 1.562387 -0.118017
H 2.054158 1.583280 -0.110231
9
Time step 1004
C -0.770675 0.031520 -0.287849
F -1.126072 0.112103 -1.621017
F -1.404704 1.124087 0.334026
F -1.440942 -1.103253 0.169200
S 0.846220 -0.188543 0.271550
O 0.742584 -0.353748 1.695385
O 1.501614 -1.113660 -0.569166
O 1.230661 1.562961 -0.118155
H 2.052855 1.583511 -0.114583
9
Time step 1005
C -0.770519 0.031052 -0.288179
F -1.126745 0.111919 -1.621433
F -1.403874 1.124827 0.334751
F -1.441629 -1.103877 0.169056
S 0.846448 -0.188974 0.271016
O 0.741892 -0.353996 1.695914
O 1.502225 -1.112689 -0.568167
O 1.230804 1.563516 -0.118290
H 2.052746 1.583788 -0.118942
9
Time step 1006
C -0.770418 0.030588 -0.288520
F -1.127411 0.111734 -1.621838
F -1.403037 1.125557 0.335472
F -1.442311 -1.104495 0.168911
S 0.846679 -0.189391 0.270486
O 0.741202 -0.354244 1.696448
O 1.502847 -1.111729 -0.567180
O 1.230874 1.564051 -0.118421
H 2.053835 1.584110 -0.123311
9
Time step 1007
C -0.770373 0.030129 -0.288872
F -1.128067 0.111550 -1.622233
F -1.402193 1.126279 0.336188
F -1.442990 -1.105108 0.168765
S 0.846912 -0.189794 0.269959
O 0.740514 -0.354493 1.696985
O 1.503480 -1.110779 -0.566205
O 1.230870 1.564567 -0.118549
H 2.056112 1.584478 -0.127696
9
Time step 1008
C -0.770385 0.029677 -0.289232
F -1.128714 0.111365 -1.622617
F -1.401342 1.126990 0.336900
F -1.443664 -1.105717 0.168617
S 0.847148 -0.190183 0.269436
O 0.739827 -0.354742 1.697525
O 1.504123 -1.109839 -0.565241
O 1.230794 1.565064 -0.118673
H 2.059545 1.584893 -0.132098
9
Time step 1009
C -0.770456 0.029234 -0.289599
F -1.129352 0.111179 -1.622992
F -1.400484 1.127692 0.337606
F -1.444333 -1.106320 0.168468
S 0.847385 -0.190559 0.268917
O 0.739141 -0.354990 1.698068
O 1.504778 -1.108911 -0.564290
O 1.230649 1.565541 -0.118792
H 2.064089 1.585355 -0.136522
9
Time step 1010
C -0.770587 0.028799 -0.289973
F -1.129980 0.110993 -1.623358
F -1.399616 1.128385 0.338308
F -1.444996 -1.106920 0.168317
S 0.847625 -0.190920 0.268402
O 0.738457 -0.355238 1.698612
O 1.505443 -1.107994 -0.563350
O 1.230439 1.565999 -0.118905
H 2.069682 1.585863 -0.140970
9
Time step 1011
C -0.770777 0.028369 -0.290352
F -1.130601 0.110808 -1.623715
F -1.398741 1.129067 0.339004
F -1.445654 -1.107513 0.168165
S 0.847867 -0.191268 0.267893
O 0.737774 -0.355484 1.699157
O 1.506121 -1.107089 -0.562424
O 1.230168 1.566437 -0.119014
H 2.076254 1.586415 -0.145448
9
Time step 1012
C -0.771027 0.027943 -0.290737
F -1.131213 0.110623 -1.624063
F -1.397857 1.129740 0.339694
F -1.446307 -1.108100 0.168011
S 0.848111 -0.191602 0.267389
O 0.737093 -0.355729 1.699703
O 1.506812 -1.106196 -0.561511
O 1.229841 1.566856 -0.119117
H 2.083726 1.587010 -0.149960
9
Time step 1013
C -0.771334 0.027519 -0.291126
F -1.131817 0.110438 -1.624402
F -1.396966 1.130403 0.340379
F -1.446954 -1.108679 0.167854
S 0.848356 -0.191920 0.266892
O 0.736413 -0.355974 1.700248
O 1.507516 -1.105316 -0.560611
O 1.229463 1.567256 -0.119214
H 2.092015 1.587644 -0.154510
9
Time step 1014
C -0.771697 0.027096 -0.291521
F -1.132414 0.110255 -1.624732
F -1.396068 1.131056 0.341060
F -1.447595 -1.109250 0.167694
S 0.848602 -0.192222 0.266402
O 0.735734 -0.356218 1.700794
O 1.508233 -1.104451 -0.559726
O 1.229039 1.567635 -0.119306
H 2.101038 1.588313 -0.159101
9
Time step 1015
C -0.772115 0.026675 -0.291921
F -1.133002 0.110071 -1.625052
F -1.395162 1.131698 0.341734
F -1.448231 -1.109813 0.167532
S 0.848848 -0.192508 0.265918
O 0.735057 -0.356461 1.701339
O 1.508964 -1.103601 -0.558856
O 1.228574 1.567995 -0.119392
H 2.110714 1.589016 -0.163737
9
Time step 1016
C -0.772587 0.026258 -0.292324
F -1.133583 0.109887 -1.625363
F -1.394249 1.132329 0.342404
F -1.448861 -1.110368 0.167367
S 0.849095 -0.192777 0.265443
O 0.734381 -0.356705 1.701884
O 1.509709 -1.102766 -0.558002
O 1.228074 1.568336 -0.119473
H 2.120960 1.589748 -0.168417
9
Time step 1017
C -0.773115 0.025847 -0.292731
F -1.134154 0.109703 -1.625664
F -1.393328 1.132949 0.343067
F -1.449486 -1.110917 0.167200
S 0.849342 -0.193029 0.264975
O 0.733707 -0.356948 1.702428
O 1.510467 -1.101946 -0.557164
O 1.227543 1.568657 -0.119548
H 2.131696 1.590510 -0.173137
9
Time step 1018
C -0.773698 0.025441 -0.293141
F -1.134717 0.109519 -1.625956
F -1.392399 1.133559 0.343723
F -1.450106 -1.111458 0.167029
S 0.849588 -0.193263 0.264516
O 0.733036 -0.357191 1.702971
O 1.511240 -1.101143 -0.556344
O 1.226986 1.568958 -0.119618
H 2.142842 1.591298 -0.177893
9
Time step 1019
C -0.774339 0.025042 -0.293554
F -1.135272 0.109335 -1.626239
F -1.391462 1.134157 0.344372
F -1.450721 -1.111993 0.166857
S 0.849835 -0.193481 0.264066
O 0.732367 -0.357434 1.703513
O 1.512027 -1.100355 -0.555541
O 1.226409 1.569241 -0.119682
H 2.154319 1.592111 -0.182678
9
Time step 1020
C -0.775036 0.024648 -0.293970
F -1.135818 0.109151 -1.626513
F -1.390516 1.134744 0.345014
F -1.451331 -1.112521 0.166682
S 0.850082 -0.193683 0.263626
O 0.731700 -0.357676 1.704054
O 1.512829 -1.099583 -0.554756
O 1.225815 1.569504 -0.119742
H 2.166050 1.592947 -0.187485
9
Time step 1021
C -0.775791 0.024259 -0.294388
F -1.136355 0.108967 -1.626777
F -1.389563 1.135321 0.345648
F -1.451935 -1.113041 0.166505
S 0.850329 -0.193867 0.263196
O 0.731036 -0.357918 1.704594
O 1.513644 -1.098827 -0.553990
O 1.225209 1.569749 -0.119798
H 2.177960 1.593802 -0.192308
9
Time step 1022
C -0.776603 0.023875 -0.294810
F -1.136885 0.108783 -1.627033
F -1.388602 1.135886 0.346275
F -1.452534 -1.113554 0.166325
S 0.850576 -0.194035 0.262776
O 0.730375 -0.358158 1.705131
O 1.514475 -1.098087 -0.553243
O 1.224596 1.569975 -0.119849
H 2.189982 1.594672 -0.197142
9
Time step 1023
C -0.777469 0.023495 -0.295235
F -1.137406 0.108600 -1.627280
F -1.387634 1.136439 0.346895
F -1.453127 -1.114059 0.166143
S 0.850823 -0.194186 0.262367
O 0.729716 -0.358398 1.705665
O 1.515320 -1.097366 -0.552514
O 1.223979 1.570183 -0.119898
H 2.202054 1.595553 -0.201983
9
Time step 1024
C -0.778390 0.023120 -0.295662
F -1.137919 0.108417 -1.627518
F -1.386660 1.136982 0.347509
F -1.453716 -1.114556 0.165959
S 0.851071 -0.194319 0.261969
O 0.729059 -0.358637 1.706196
O 1.516180 -1.096662 -0.551805
O 1.223362 1.570373 -0.119944
H 2.214119 1.596440 -0.206828
9
Time step 1025
C -0.779364 0.022752 -0.296091
F -1.138424 0.108235 -1.627747
F -1.385678 1.137512 0.348116
F -1.454299 -1.115046 0.165771
S 0.851319 -0.194434 0.261582
O 0.728403 -0.358875 1.706723
O 1.517055 -1.095978 -0.551115
O 1.222746 1.570545 -0.119988
H 2.226130 1.597330 -0.211673
9
Time step 1026
C -0.780390 0.022391 -0.296523
F -1.138921 0.108053 -1.627966
F -1.384690 1.138032 0.348717
F -1.454878 -1.115529 0.165579
S 0.851567 -0.194532 0.261207
O 0.727749 -0.359112 1.707246
O 1.517947 -1.095312 -0.550444
O 1.222135 1.570700 -0.120030
H 2.238042 1.598221 -0.216513
9
Time step 1027
C -0.781466 0.022036 -0.296958
F -1.139410 0.107871 -1.628174
F -1.383693 1.138539 0.349312
F -1.455452 -1.116005 0.165384
S 0.851814 -0.194611 0.260845
O 0.727097 -0.359347 1.707764
O 1.518856 -1.094667 -0.549794
O 1.221532 1.570837 -0.120071
H 2.249815 1.599110 -0.221342
9
Time step 1028
C -0.782594 0.021687 -0.297399
F -1.139892 0.107690 -1.628371
F -1.382690 1.139036 0.349900
F -1.456023 -1.116475 0.165187
S 0.852060 -0.194673 0.260495
O 0.726446 -0.359581 1.708278
O 1.519782 -1.094040 -0.549163
O 1.220939 1.570957 -0.120111
H 2.261411 1.599998 -0.226153
9
Time step 1029
C -0.783773 0.021344 -0.297847
F -1.140367 0.107509 -1.628557
F -1.381678 1.139522 0.350481
F -1.456588 -1.116937 0.164986
S 0.852304 -0.194717 0.260158
O 0.725798 -0.359813 1.708787
O 1.520726 -1.093433 -0.548554
O 1.220358 1.571059 -0.120149
H 2.272792 1.600883 -0.230938
9
Time step 1030
C -0.785005 0.021004 -0.298303
F -1.140835 0.107328 -1.628731
F -1.380659 1.139997 0.351056
F -1.457149 -1.117392 0.164783
S 0.852545 -0.194744 0.259833
O 0.725152 -0.360044 1.709291
O 1.521689 -1.092845 -0.547965
O 1.219792 1.571145 -0.120186
H 2.283925 1.601765 -0.235693
9
Time step 1031
C -0.786288 0.020668 -0.298765
F -1.141295 0.107148 -1.628894
F -1.379631 1.140460 0.351625
F -1.457705 -1.117838 0.164577
S 0.852783 -0.194752 0.259521
O 0.724508 -0.360272 1.709789
O 1.522671 -1.092278 -0.547396
O 1.219243 1.571214 -0.120222
H 2.294778 1.602641 -0.240412
9
Time step 1032
C -0.787624 0.020335 -0.299232
F -1.141747 0.106969 -1.629046
F -1.378596 1.140912 0.352186
F -1.458256 -1.118277 0.164369
S 0.853019 -0.194742 0.259221
O 0.723867 -0.360499 1.710282
O 1.523671 -1.091732 -0.546848
O 1.218712 1.571266 -0.120258
H 2.305324 1.603509 -0.245093
9
Time step 1033
C -0.789011 0.020007 -0.299701
F -1.142190 0.106790 -1.629187
F -1.377554 1.141352 0.352741
F -1.458802 -1.118708 0.164159
S 0.853252 -0.194712 0.258932
O 0.723228 -0.360725 1.710768
O 1.524690 -1.091207 -0.546320
O 1.218200 1.571302 -0.120292
H 2.315537 1.604364 -0.249736
9
Time step 1034
C -0.790449 0.019682 -0.300171
F -1.142625 0.106612 -1.629318
F -1.376504 1.141780 0.353290
F -1.459343 -1.119131 0.163945
S 0.853482 -0.194663 0.258655
O 0.722591 -0.360950 1.711249
O 1.525727 -1.090704 -0.545812
O 1.217710 1.571322 -0.120326
H 2.325400 1.605201 -0.254338
9
Time step 1035
C -0.791939 0.019363 -0.300639
F -1.143051 0.106434 -1.629440
F -1.375447 1.142197 0.353831
F -1.459880 -1.119546 0.163728
S 0.853710 -0.194595 0.258388
O 0.721956 -0.361174 1.711724
O 1.526782 -1.090222 -0.545323
O 1.217241 1.571326 -0.120360
H 2.334894 1.606017 -0.258900
9
Time step 1036
C -0.793480 0.019048 -0.301107
F -1.143469 0.106257 -1.629553
F -1.374381 1.142602 0.354366
F -1.460411 -1.119955 0.163507
S 0.853935 -0.194507 0.258134
O 0.721323 -0.361398 1.712193
O 1.527856 -1.089761 -0.544853
O 1.216795 1.571313 -0.120394
H 2.344007 1.606807 -0.263419
9
Time step 1037
C -0.795073 0.018740 -0.301574
F -1.143880 0.106079 -1.629656
F -1.373309 1.142996 0.354895
F -1.460938 -1.120357 0.163283
S 0.854158 -0.194399 0.257892
O 0.720693 -0.361622 1.712656
O 1.528948 -1.089321 -0.544404
O 1.216372 1.571285 -0.120429
H 2.352723 1.607569 -0.267891
9
Time step 1038
C -0.796716 0.018439 -0.302043
F -1.144282 0.105901 -1.629750
F -1.372228 1.143379 0.355416
F -1.461459 -1.120751 0.163056
S 0.854377 -0.194273 0.257663
O 0.720066 -0.361846 1.713113
O 1.530058 -1.088900 -0.543974
O 1.215974 1.571241 -0.120465
H 2.361031 1.608302 -0.272312
9
Time step 1039
C -0.798407 0.018144 -0.302516
F -1.144677 0.105723 -1.629835
F -1.371141 1.143750 0.355931
F -1.461976 -1.121138 0.162827
S 0.854594 -0.194128 0.257449
O 0.719441 -0.362069 1.713563
O 1.531186 -1.088498 -0.543566
O 1.215601 1.571180 -0.120503
H 2.368918 1.609005 -0.276677
9
Time step 1040
C -0.800143 0.017855 -0.302993
F -1.145064 0.105545 -1.629910
F -1.370048 1.144109 0.356438
F -1.462488 -1.121517 0.162596
S 0.854808 -0.193964 0.257248
O 0.718819 -0.362292 1.714005
O 1.532332 -1.088116 -0.543180
O 1.215253 1.571103 -0.120541
H 2.376369 1.609681 -0.280982
9
Time step 1041
C -0.801923 0.017570 -0.303472
F -1.145445 0.105367 -1.629976
F -1.368949 1.144455 0.356938
F -1.462997 -1.121887 0.162363
S 0.855018 -0.193782 0.257063
O 0.718201 -0.362514 1.714440
O 1.533494 -1.087752 -0.542815
O 1.214933 1.571009 -0.120581
H 2.383374 1.610330 -0.285223
9
Time step 1042
C -0.803743 0.017289 -0.303954
F -1.145819 0.105190 -1.630031
F -1.367844 1.144789 0.357429
F -1.463502 -1.122249 0.162127
S 0.855225 -0.193580 0.256892
O 0.717585 -0.362735 1.714866
O 1.534675 -1.087409 -0.542472
O 1.214639 1.570898 -0.120622
H 2.389920 1.610951 -0.289397
9
Time step 1043
C -0.805604 0.017009 -0.304437
F -1.146187 0.105014 -1.630077
F -1.366732 1.145111 0.357913
F -1.464003 -1.122601 0.161890
S 0.855429 -0.193359 0.256736
O 0.716972 -0.362955 1.715283
O 1.535873 -1.087085 -0.542151
O 1.214372 1.570771 -0.120665
H 2.395999 1.611547 -0.293502
9
Time step 1044
C -0.807507 0.016731 -0.304918
F -1.146549 0.104839 -1.630114
F -1.365614 1.145420 0.358388
F -1.464500 -1.122944 0.161649
S 0.855629 -0.193119 0.256595
O 0.716361 -0.363174 1.715690
O 1.537089 -1.086782 -0.541852
O 1.214134 1.570627 -0.120710
H 2.401603 1.612115 -0.297537
9
Time step 1045
C -0.809454 0.016455 -0.305399
F -1.146904 0.104666 -1.630142
F -1.364489 1.145718 0.358855
F -1.464993 -1.123278 0.161406
S 0.855825 -0.192861 0.256469
O 0.715753 -0.363391 1.716088
O 1.538323 -1.086499 -0.541574
O 1.213924 1.570467 -0.120756
H 2.406729 1.612654 -0.301499
9
Time step 1046
C -0.811445 0.016182 -0.305878
F -1.147252 0.104492 -1.630162
F -1.363358 1.146004 0.359316
F -1.465479 -1.123604 0.161159
S 0.856017 -0.192583 0.256357
O 0.715147 -0.363607 1.716475
O 1.539576 -1.086236 -0.541316
O 1.213742 1.570292 -0.120804
H 2.411373 1.613164 -0.305388
9
Time step 1047
C -0.813481 0.015916 -0.306355
F -1.147594 0.104320 -1.630173
F -1.362221 1.146278 0.359769
F -1.465961 -1.123922 0.160911
S 0.856205 -0.192288 0.256260
O 0.714544 -0.363821 1.716853
O 1.540848 -1.085995 -0.541080
O 1.213590 1.570101 -0.120854
H 2.415533 1.613643 -0.309203
9
Time step 1048
C -0.815558 0.015656 -0.306830
F -1.147929 0.104148 -1.630177
F -1.361080 1.146541 0.360215
F -1.466437 -1.124232 0.160660
S 0.856388 -0.191976 0.256177
O 0.713945 -0.364031 1.717220
O 1.542140 -1.085773 -0.540866
O 1.213467 1.569894 -0.120906
H 2.419209 1.614090 -0.312943
9
Time step 1049
C -0.817675 0.015403 -0.307302
F -1.148256 0.103977 -1.630173
F -1.359935 1.146792 0.360653
F -1.466910 -1.124536 0.160407
S 0.856567 -0.191647 0.256109
O 0.713348 -0.364239 1.717576
O 1.543450 -1.085573 -0.540672
O 1.213374 1.569672 -0.120959
H 2.422397 1.614505 -0.316608
9
Time step 1050
C -0.819827 0.015158 -0.307770
F -1.148578 0.103808 -1.630161
F -1.358787 1.147030 0.361083
F -1.467380 -1.124832 0.160152
S 0.856741 -0.191301 0.256056
O 0.712755 -0.364444 1.717921
O 1.544780 -1.085393 -0.540501
O 1.213311 1.569434 -0.121013
H 2.425099 1.614888 -0.320198
9
Time step 1051
C -0.822012 0.014917 -0.308233
F -1.148893 0.103640 -1.630141
F -1.357635 1.147256 0.361504
F -1.467849 -1.125122 0.159895
S 0.856910 -0.190936 0.256016
O 0.712165 -0.364645 1.718256
O 1.546130 -1.085234 -0.540351
O 1.213277 1.569181 -0.121068
H 2.427313 1.615238 -0.323713
9
Time step 1052
C -0.824231 0.014681 -0.308691
F -1.149203 0.103474 -1.630113
F -1.356479 1.147469 0.361918
F -1.468316 -1.125404 0.159635
S 0.857074 -0.190552 0.255990
O 0.711577 -0.364843 1.718579
O 1.547498 -1.085096 -0.540221
O 1.213273 1.568911 -0.121125
H 2.429039 1.615557 -0.327152
9
Time step 1053
C -0.826483 0.014446 -0.309144
F -1.149508 0.103310 -1.630076
F -1.355318 1.147670 0.362323
F -1.468780 -1.125679 0.159372
S 0.857234 -0.190148 0.255978
O 0.710992 -0.365040 1.718892
O 1.548886 -1.084979 -0.540112
O 1.213298 1.568624 -0.121184
H 2.430277 1.615843 -0.330514
9
Time step 1054
C -0.828769 0.014214 -0.309592
F -1.149807 0.103145 -1.630031
F -1.354153 1.147859 0.362722
F -1.469242 -1.125945 0.159105
S 0.857388 -0.189725 0.255978
O 0.710410 -0.365235 1.719195
O 1.550291 -1.084882 -0.540023
O 1.213353 1.568321 -0.121244
H 2.431026 1.616098 -0.333795
9
Time step 1055
C -0.831092 0.013984 -0.310038
F -1.150101 0.102980 -1.629977
F -1.352981 1.148038 0.363114
F -1.469700 -1.126203 0.158835
S 0.857537 -0.189283 0.255991
O 0.709829 -0.365428 1.719488
O 1.551715 -1.084805 -0.539952
O 1.213438 1.568002 -0.121305
H 2.431289 1.616320 -0.336994
9
Time step 1056
C -0.833449 0.013759 -0.310481
F -1.150389 0.102813 -1.629915
F -1.351805 1.148204 0.363499
F -1.470153 -1.126451 0.158560
S 0.857682 -0.188821 0.256016
O 0.709252 -0.365620 1.719773
O 1.553155 -1.084746 -0.539901
O 1.213552 1.567666 -0.121369
H 2.431066 1.616508 -0.340106
9
Time step 1057
C -0.835839 0.013538 -0.310924
F -1.150671 0.102646 -1.629844
F -1.350625 1.148360 0.363878
F -1.470603 -1.126691 0.158282
S 0.857821 -0.188342 0.256053
O 0.708678 -0.365811 1.720049
O 1.554612 -1.084705 -0.539868
O 1.213696 1.567313 -0.121434
H 2.430357 1.616663 -0.343128
9
Time step 1058
C -0.838259 0.013324 -0.311365
F -1.150948 0.102478 -1.629764
F -1.349441 1.148503 0.364250
F -1.471049 -1.126923 0.158002
S 0.857956 -0.187846 0.256103
O 0.708107 -0.366000 1.720316
O 1.556085 -1.084682 -0.539855
O 1.213868 1.566945 -0.121501
H 2.429163 1.616782 -0.346058
9
Time step 1059
C -0.840709 0.013114 -0.311805
F -1.151220 0.102310 -1.629675
F -1.348253 1.148634 0.364613
F -1.471492 -1.127148 0.157719
S 0.858086 -0.187332 0.256164
O 0.707541 -0.366187 1.720574
O 1.557573 -1.084677 -0.539860
O 1.214069 1.566561 -0.121570
H 2.427485 1.616864 -0.348893
9
Time step 1060
C -0.843186 0.012909 -0.312243
F -1.151486 0.102144 -1.629578
F -1.347062 1.148754 0.364969
F -1.471934 -1.127365 0.157435
S 0.858211 -0.186802 0.256238
O 0.706978 -0.366371 1.720822
O 1.559076 -1.084689 -0.539883
O 1.214299 1.566162 -0.121642
H 2.425323 1.616906 -0.351633
9
Time step 1061
C -0.845692 0.012708 -0.312679
F -1.151747 0.101980 -1.629472
F -1.345866 1.148862 0.365316
F -1.472372 -1.127576 0.157148
S 0.858331 -0.186254 0.256325
O 0.706419 -0.366554 1.721061
O 1.560594 -1.084719 -0.539924
O 1.214557 1.565748 -0.121716
H 2.422678 1.616908 -0.354276
9
Time step 1062
C -0.848226 0.012509 -0.313114
F -1.152002 0.101817 -1.629358
F -1.344667 1.148958 0.365656
F -1.472809 -1.127780 0.156860
S 0.858447 -0.185689 0.256424
O 0.705864 -0.366734 1.721289
O 1.562126 -1.084765 -0.539982
O 1.214843 1.565320 -0.121794
H 2.419551 1.616869 -0.356821
9
Time step 1063
C -0.850789 0.012312 -0.313545
F -1.152251 0.101655 -1.629235
F -1.343463 1.149043 0.365989
F -1.473242 -1.127977 0.156568
S 0.858558 -0.185108 0.256535
O 0.705311 -0.366913 1.721506
O 1.563672 -1.084828 -0.540057
O 1.215158 1.564878 -0.121875
H 2.415941 1.616788 -0.359268
9
Time step 1064
C -0.853380 0.012120 -0.313974
F -1.152494 0.101494 -1.629104
F -1.342254 1.149117 0.366315
F -1.473672 -1.128167 0.156274
S 0.858664 -0.184511 0.256659
O 0.704762 -0.367091 1.721711
O 1.565232 -1.084907 -0.540148
O 1.215501 1.564422 -0.121961
H 2.411850 1.616666 -0.361614
9
Time step 1065
C -0.855995 0.011933 -0.314398
F -1.152732 0.101333 -1.628965
F -1.341042 1.149180 0.366634
F -1.474099 -1.128350 0.155976
S 0.858765 -0.183900 0.256794
O 0.704216 -0.367267 1.721906
O 1.566805 -1.085000 -0.540253
O 1.215872 1.563953 -0.122051
H 2.407280 1.616504 -0.363858
9
Time step 1066
C -0.858633 0.011751 -0.314817
F -1.152966 0.101173 -1.628819
F -1.339826 1.149231 0.366946
F -1.474523 -1.128526 0.155676
S 0.858862 -0.183274 0.256941
O 0.703673 -0.367441 1.722089
O 1.568391 -1.085107 -0.540374
O 1.216271 1.563471 -0.122146
H 2.402232 1.616303 -0.365998
9
Time step 1067
C -0.861291 0.011575 -0.315230
F -1.153196 0.101014 -1.628666
F -1.338608 1.149269 0.367250
F -1.474946 -1.128693 0.155374
S 0.858955 -0.182635 0.257099
O 0.703133 -0.367614 1.722262
O 1.569989 -1.085228 -0.540509
O 1.216698 1.562977 -0.122246
H 2.396711 1.616065 -0.368032
9
Time step 1068
C -0.863968 0.011405 -0.315634
F -1.153423 0.100856 -1.628507
F -1.337387 1.149294 0.367544
F -1.475367 -1.128853 0.155069
S 0.859043 -0.181984 0.257268
O 0.702596 -0.367784 1.722423
O 1.571600 -1.085361 -0.540658
O 1.217152 1.562471 -0.122349
H 2.390720 1.615791 -0.369961
9
Time step 1069
C -0.866664 0.011239 -0.316030
F -1.153646 0.100700 -1.628341
F -1.336163 1.149307 0.367830
F -1.475786 -1.129006 0.154764
S 0.859127 -0.181320 0.257447
O 0.702061 -0.367953 1.722574
O 1.573224 -1.085507 -0.540821
O 1.217635 1.561954 -0.122457
H 2.384265 1.615479 -0.371784
9
Time step 1070
C -0.869379 0.011078 -0.316418
F -1.153866 0.100546 -1.628169
F -1.334938 1.149307 0.368107
F -1.476204 -1.129151 0.154457
S 0.859208 -0.180642 0.257637
O 0.701530 -0.368120 1.722714
O 1.574860 -1.085666 -0.540997
O 1.218145 1.561424 -0.122568
H 2.377352 1.615128 -0.373503
9
Time step 1071
C -0.872115 0.010921 -0.316799
F -1.154082 0.100394 -1.627991
F -1.333710 1.149296 0.368377
F -1.476621 -1.129289 0.154149
S 0.859284 -0.179952 0.257836
O 0.701001 -0.368285 1.722843
O 1.576510 -1.085838 -0.541186
O 1.218681 1.560882 -0.122683
H 2.369989 1.614736 -0.375121
9
Time step 1072
C -0.874872 0.010767 -0.317174
F -1.154294 0.100242 -1.627807
F -1.332481 1.149274 0.368639
F -1.477036 -1.129419 0.153838
S 0.859357 -0.179249 0.258044
O 0.700475 -0.368448 1.722961
O 1.578173 -1.086022 -0.541388
O 1.219244 1.560328 -0.122801
H 2.362184 1.614301 -0.376639
9
Time step 1073
C -0.877649 0.010616 -0.317542
F -1.154501 0.100091 -1.627616
F -1.331251 1.149243 0.368894
F -1.477450 -1.129543 0.153526
S 0.859425 -0.178534 0.258262
O 0.699952 -0.368609 1.723068
O 1.579849 -1.086218 -0.541604
O 1.219833 1.559760 -0.122921
H 2.353947 1.613819 -0.378061
9
Time step 1074
C -0.880443 0.010469 -0.317903
F -1.154704 0.099942 -1.627420
F -1.330020 1.149201 0.369143
F -1.477863 -1.129658 0.153212
S 0.859488 -0.177805 0.258490
O 0.699434 -0.368767 1.723164
O 1.581538 -1.086426 -0.541832
O 1.220446 1.559179 -0.123045
H 2.345287 1.613289 -0.379388
9
Time step 1075
C -0.883251 0.010323 -0.318255
F -1.154903 0.099793 -1.627218
F -1.328789 1.149150 0.369385
F -1.478276 -1.129767 0.152895
S 0.859547 -0.177065 0.258728
O 0.698919 -0.368922 1.723248
O 1.583241 -1.086644 -0.542073
O 1.221083 1.558584 -0.123171
H 2.336216 1.612710 -0.380622
9
Time step 1076
C -0.886072 0.010180 -0.318598
F -1.155100 0.099646 -1.627012
F -1.327558 1.149089 0.369619
F -1.478687 -1.129869 0.152576
S 0.859601 -0.176312 0.258976
O 0.698408 -0.369074 1.723321
O 1.584956 -1.086871 -0.542327
O 1.221744 1.557974 -0.123301
H 2.326748 1.612082 -0.381763
9
Time step 1077
C -0.888903 0.010040 -0.318929
F -1.155296 0.099501 -1.626802
F -1.326326 1.149017 0.369845
F -1.479099 -1.129964 0.152254
S 0.859651 -0.175548 0.259234
O 0.697901 -0.369222 1.723381
O 1.586683 -1.087107 -0.542593
O 1.222428 1.557350 -0.123433
H 2.316894 1.611405 -0.382811
9
Time step 1078
C -0.891744 0.009901 -0.319250
F -1.155489 0.099358 -1.626589
F -1.325093 1.148933 0.370064
F -1.479512 -1.130052 0.151931
S 0.859696 -0.174772 0.259501
O 0.697398 -0.369368 1.723430
O 1.588421 -1.087352 -0.542870
O 1.223134 1.556712 -0.123568
H 2.306670 1.610682 -0.383766
9
Time step 1079
C -0.894595 0.009765 -0.319560
F -1.155681 0.099215 -1.626371
F -1.323860 1.148839 0.370275
F -1.479924 -1.130132 0.151606
S 0.859738 -0.173984 0.259777
O 0.696898 -0.369512 1.723466
O 1.590169 -1.087604 -0.543157
O 1.223861 1.556059 -0.123705
H 2.296088 1.609914 -0.384626
9
Time step 1080
C -0.897456 0.009633 -0.319862
F -1.155870 0.099074 -1.626148
F -1.322627 1.148734 0.370479
F -1.480337 -1.130206 0.151279
S 0.859776 -0.173185 0.260062
O 0.696402 -0.369652 1.723491
O 1.591926 -1.087863 -0.543455
O 1.224608 1.555392 -0.123845
H 2.285163 1.609104 -0.385393
9
Time step 1081
C -0.900324 0.009506 -0.320156
F -1.156056 0.098932 -1.625920
F -1.321394 1.148618 0.370676
F -1.480750 -1.130273 0.150951
S 0.859810 -0.172375 0.260354
O 0.695910 -0.369790 1.723503
O 1.593692 -1.088129 -0.543762
O 1.225374 1.554710 -0.123987
H 2.273912 1.608254 -0.386068
9
Time step 1082
C -0.903198 0.009383 -0.320443
F -1.156239 0.098792 -1.625686
F -1.320162 1.148492 0.370866
F -1.481164 -1.130332 0.150620
S 0.859842 -0.171554 0.260654
O 0.695422 -0.369925 1.723504
O 1.595465 -1.088401 -0.544077
O 1.226157 1.554014 -0.124131
H 2.262352 1.607366 -0.386655
9
Time step 1083
C -0.906077 0.009264 -0.320723
F -1.156419 0.098652 -1.625444
F -1.318932 1.148356 0.371049
F -1.481578 -1.130384 0.150288
S 0.859869 -0.170724 0.260962
O 0.694938 -0.370057 1.723492
O 1.597246 -1.088679 -0.544402
O 1.226956 1.553301 -0.124277
H 2.250505 1.606443 -0.387161
9
Time step 1084
C -0.908957 0.009147 -0.320994
F -1.156596 0.098514 -1.625196
F -1.317703 1.148209 0.371224
F -1.481993 -1.130430 0.149954
S 0.859893 -0.169884 0.261276
O 0.694458 -0.370186 1.723469
O 1.599033 -1.088962 -0.544734
O 1.227769 1.552574 -0.124423
H 2.238397 1.605487 -0.387595
9
Time step 1085
C -0.911838 0.009033 -0.321255
F -1.156771 0.098378 -1.624943
F -1.316477 1.148053 0.371391
F -1.482409 -1.130470 0.149617
S 0.859913 -0.169034 0.261597
O 0.693982 -0.370312 1.723435
O 1.600827 -1.089250 -0.545075
O 1.228594 1.551832 -0.124571
H 2.226058 1.604498 -0.387967
9
Time step 1086
C -0.914718 0.008921 -0.321503
F -1.156944 0.098245 -1.624686
F -1.315252 1.147886 0.371551
F -1.482826 -1.130503 0.149279
S 0.859929 -0.168176 0.261924
O 0.693511 -0.370434 1.723389
O 1.602627 -1.089542 -0.545422
O 1.229431 1.551075 -0.124720
H 2.213523 1.603478 -0.388290
9
Time step 1087
C -0.917597 0.008811 -0.321740
F -1.157115 0.098113 -1.624424
F -1.314029 1.147710 0.371702
F -1.483245 -1.130531 0.148938
S 0.859941 -0.167309 0.262258
O 0.693045 -0.370554 1.723333
O 1.604432 -1.089837 -0.545774
O 1.230276 1.550303 -0.124868
H 2.200834 1.602431 -0.388575
9
Time step 1088
C -0.920476 0.008705 -0.321967
F -1.157284 0.097983 -1.624160
F -1.312807 1.147523 0.371848
F -1.483664 -1.130553 0.148596
S 0.859948 -0.166434 0.262597
O 0.692583 -0.370671 1.723266
O 1.606243 -1.090135 -0.546132
O 1.231127 1.549519 -0.125015
H 2.188034 1.601359 -0.388836
9
Time step 1089
C -0.923355 0.008603 -0.322184
F -1.157452 0.097855 -1.623892
F -1.311586 1.147326 0.371987
F -1.484084 -1.130570 0.148253
S 0.859950 -0.165551 0.262940
O 0.692125 -0.370784 1.723190
O 1.608058 -1.090435 -0.546494
O 1.231982 1.548720 -0.125159
H 2.175173 1.600265 -0.389085
9
Time step 1090
C -0.926233 0.008506 -0.322393
F -1.157618 0.097727 -1.623621
F -1.310366 1.147120 0.372121
F -1.484506 -1.130582 0.147908
S 0.859949 -0.164662 0.263286
O 0.691672 -0.370895 1.723104
O 1.609878 -1.090736 -0.546859
O 1.232836 1.547908 -0.125299
H 2.162302 1.599155 -0.389335
9
Time step 1091
C -0.929110 0.008414 -0.322595
F -1.157783 0.097600 -1.623346
F -1.309146 1.146903 0.372249
F -1.484928 -1.130588 0.147563
S 0.859945 -0.163766 0.263634
O 0.691222 -0.371002 1.723010
O 1.611702 -1.091039 -0.547226
O 1.233687 1.547083 -0.125434
H 2.149480 1.598032 -0.389600
9
Time step 1092
C -0.931987 0.008327 -0.322789
F -1.157948 0.097474 -1.623068
F -1.307928 1.146675 0.372370
F -1.485351 -1.130589 0.147217
S 0.859937 -0.162862 0.263985
O 0.690776 -0.371107 1.722907
O 1.613529 -1.091344 -0.547595
O 1.234530 1.546244 -0.125563
H 2.136769 1.596901 -0.389895
9
Time step 1093
C -0.934861 0.008245 -0.322972
F -1.158111 0.097350 -1.622785
F -1.306711 1.146438 0.372484
F -1.485775 -1.130585 0.146870
S 0.859927 -0.161953 0.264337
O 0.690333 -0.371208 1.722797
O 1.615360 -1.091651 -0.547967
O 1.235360 1.545390 -0.125684
H 2.124238 1.595765 -0.390238
9
Time step 1094
C -0.937734 0.008165 -0.323145
F -1.158275 0.097228 -1.622500
F -1.305496 1.146192 0.372590
F -1.486199 -1.130575 0.146522
S 0.859915 -0.161036 0.264690
O 0.689894 -0.371307 1.722679
O 1.617194 -1.091958 -0.548340
O 1.236174 1.544523 -0.125796
H 2.111960 1.594627 -0.390651
9
Time step 1095
C -0.940603 0.008089 -0.323304
F -1.158438 0.097108 -1.622212
F -1.304284 1.145936 0.372689
F -1.486626 -1.130561 0.146173
S 0.859901 -0.160114 0.265045
O 0.689457 -0.371402 1.722554
O 1.619031 -1.092267 -0.548717
O 1.236967 1.543642 -0.125898
H 2.100015 1.593490 -0.391157
9
Time step 1096
C -0.943468 0.008016 -0.323450
F -1.158600 0.096989 -1.621921
F -1.303076 1.145672 0.372782
F -1.487054 -1.130542 0.145822
S 0.859886 -0.159187 0.265402
O 0.689025 -0.371495 1.722422
O 1.620871 -1.092575 -0.549096
O 1.237733 1.542748 -0.125989
H 2.088483 1.592355 -0.391782
9
Time step 1097
C -0.946327 0.007948 -0.323583
F -1.158762 0.096871 -1.621629
F -1.301871 1.145400 0.372868
F -1.487484 -1.130518 0.145471
S 0.859868 -0.158255 0.265761
O 0.688595 -0.371585 1.722281
O 1.622714 -1.092883 -0.549477
O 1.238467 1.541840 -0.126068
H 2.077450 1.591226 -0.392554
9
Time step 1098
C -0.949179 0.007885 -0.323704
F -1.158922 0.096754 -1.621335
F -1.300671 1.145119 0.372947
F -1.487917 -1.130490 0.145119
S 0.859849 -0.157319 0.266122
O 0.688170 -0.371672 1.722133
O 1.624558 -1.093189 -0.549861
O 1.239164 1.540920 -0.126132
H 2.066998 1.590107 -0.393503
9
Time step 1099
C -0.952024 0.007826 -0.323814
F -1.159081 0.096639 -1.621040
F -1.299475 1.144831 0.373021
F -1.488353 -1.130457 0.144767
S 0.859829 -0.156380 0.266485
O 0.687749 -0.371756 1.721975
O 1.626403 -1.093494 -0.550246
O 1.239818 1.539986 -0.126179
H 2.057208 1.589000 -0.394659
9
Time step 1100
C -0.954859 0.007771 -0.323915
F -1.159240 0.096526 -1.620743
F -1.298282 1.144533 0.373088
F -1.488791 -1.130420 0.144415
S 0.859806 -0.155440 0.266850
O 0.687332 -0.371835 1.721809
O 1.628249 -1.093795 -0.550632
O 1.240424 1.539040 -0.126209
H 2.048161 1.587910 -0.396051
9
Time step 1101
C -0.957684 0.007720 -0.324004
F -1.159398 0.096417 -1.620445
F -1.297093 1.144227 0.373148
F -1.489231 -1.130378 0.144064
S 0.859781 -0.154497 0.267219
O 0.686919 -0.371912 1.721633
O 1.630097 -1.094094 -0.551019
O 1.240976 1.538080 -0.126219
H 2.039931 1.586843 -0.397711
9
Time step 1102
C -0.960499 0.007671 -0.324082
F -1.159556 0.096310 -1.620145
F -1.295908 1.143911 0.373201
F -1.489674 -1.130331 0.143713
S 0.859755 -0.153552 0.267589
O 0.686509 -0.371984 1.721447
O 1.631944 -1.094388 -0.551406
O 1.241470 1.537106 -0.126209
H 2.032588 1.585802 -0.399669
9
Time step 1103
C -0.963303 0.007624 -0.324147
F -1.159715 0.096206 -1.619844
F -1.294727 1.143587 0.373247
F -1.490119 -1.130279 0.143362
S 0.859727 -0.152606 0.267963
O 0.686104 -0.372053 1.721252
O 1.633792 -1.094678 -0.551792
O 1.241904 1.536119 -0.126175
H 2.026198 1.584793 -0.401953
9
Time step 1104
C -0.966093 0.007578 -0.324199
F -1.159874 0.096103 -1.619541
F -1.293551 1.143255 0.373288
F -1.490568 -1.130220 0.143008
S 0.859699 -0.151657 0.268338
O 0.685701 -0.372119 1.721046
O 1.635639 -1.094964 -0.552178
O 1.242273 1.535116 -0.126117
H 2.020816 1.583818 -0.404589
9
Time step 1105
C -0.968868 0.007536 -0.324237
F -1.160034 0.096002 -1.619237
F -1.292381 1.142915 0.373323
F -1.491020 -1.130157 0.142653
S 0.859670 -0.150707 0.268715
O 0.685302 -0.372181 1.720831
O 1.637486 -1.095244 -0.552564
O 1.242575 1.534100 -0.126033
H 2.016488 1.582881 -0.407599
9
Time step 1106
C -0.971626 0.007496 -0.324262
F -1.160195 0.095901 -1.618931
F -1.291217 1.142569 0.373353
F -1.491476 -1.130087 0.142295
S 0.859641 -0.149757 0.269094
O 0.684907 -0.372240 1.720606
O 1.639332 -1.095518 -0.552948
O 1.242808 1.533068 -0.125922
H 2.013247 1.581986 -0.411003
9
Time step 1107
C -0.974362 0.007460 -0.324274
F -1.160357 0.095801 -1.618623
F -1.290062 1.142215 0.373377
F -1.491938 -1.130014 0.141937
S 0.859610 -0.148805 0.269473
O 0.684515 -0.372295 1.720372
O 1.641176 -1.095786 -0.553330
O 1.242971 1.532021 -0.125782
H 2.011112 1.581135 -0.414810
9
Time step 1108
C -0.977075 0.007426 -0.324273
F -1.160519 0.095702 -1.618314
F -1.288914 1.141854 0.373396
F -1.492404 -1.129936 0.141578
S 0.859579 -0.147852 0.269851
O 0.684128 -0.372346 1.720127
O 1.643019 -1.096048 -0.553710
O 1.243063 1.530958 -0.125613
H 2.010085 1.580328 -0.419028
9
Time step 1109
C -0.979765 0.007395 -0.324258
F -1.160684 0.095606 -1.618003
F -1.287774 1.141486 0.373408
F -1.492877 -1.129854 0.141219
S 0.859546 -0.146899 0.270229
O 0.683746 -0.372393 1.719873
O 1.644859 -1.096303 -0.554086
O 1.243087 1.529880 -0.125414
H 2.010156 1.579568 -0.423657
9
Time step 1110
C -0.982433 0.007365 -0.324231
F -1.160849 0.095513 -1.617692
F -1.286641 1.141111 0.373414
F -1.493354 -1.129769 0.140861
S 0.859511 -0.145945 0.270606
O 0.683368 -0.372436 1.719609
O 1.646697 -1.096551 -0.554458
O 1.243042 1.528787 -0.125186
H 2.011298 1.578854 -0.428694
9
Time step 1111
C -0.985080 0.007337 -0.324192
F -1.161015 0.095423 -1.617381
F -1.285513 1.140729 0.373414
F -1.493836 -1.129681 0.140504
S 0.859474 -0.144990 0.270981
O 0.682996 -0.372476 1.719336
O 1.648533 -1.096791 -0.554826
O 1.242933 1.527678 -0.124928
H 2.013471 1.578183 -0.434130
9
Time step 1112
C -0.987708 0.007309 -0.324140
F -1.161182 0.095335 -1.617069
F -1.284392 1.140341 0.373409
F -1.494323 -1.129590 0.140147
S 0.859436 -0.144035 0.271353
O 0.682628 -0.372512 1.719054
O 1.650365 -1.097022 -0.555187
O 1.242762 1.526554 -0.124641
H 2.016627 1.577553 -0.439953
9
Time step 1113
C -0.990318 0.007281 -0.324078
F -1.161350 0.095249 -1.616758
F -1.283275 1.139946 0.373399
F -1.494815 -1.129495 0.139791
S 0.859396 -0.143080 0.271724
O 0.682266 -0.372544 1.718765
O 1.652194 -1.097243 -0.555543
O 1.242534 1.525415 -0.124326
H 2.020707 1.576958 -0.446147
9
Time step 1114
C -0.992911 0.007255 -0.324004
F -1.161519 0.095165 -1.616446
F -1.282164 1.139547 0.373385
F -1.495312 -1.129399 0.139434
S 0.859355 -0.142126 0.272090
O 0.681908 -0.372572 1.718469
O 1.654019 -1.097454 -0.555893
O 1.242253 1.524262 -0.123986
H 2.025647 1.576393 -0.452694
9
Time step 1115
C -0.995483 0.007231 -0.323920
F -1.161689 0.095082 -1.616135
F -1.281060 1.139141 0.373367
F -1.495814 -1.129300 0.139077
S 0.859314 -0.141172 0.272453
O 0.681555 -0.372597 1.718168
O 1.655840 -1.097654 -0.556237
O 1.241922 1.523095 -0.123621
H 2.031377 1.575851 -0.459571
9
Time step 1116
C -0.998031 0.007209 -0.323826
F -1.161861 0.095001 -1.615823
F -1.279962 1.138730 0.373344
F -1.496321 -1.129199 0.138721
S 0.859271 -0.140220 0.272812
O 0.681207 -0.372619 1.717862
O 1.657657 -1.097843 -0.556574
O 1.241547 1.521915 -0.123234
H 2.037823 1.575326 -0.466751
9
Time step 1117
C -1.000553 0.007190 -0.323721
F -1.162035 0.094924 -1.615513
F -1.278872 1.138314 0.373317
F -1.496834 -1.129096 0.138366
S 0.859228 -0.139269 0.273167
O 0.680862 -0.372637 1.717552
O 1.659470 -1.098020 -0.556905
O 1.241133 1.520722 -0.122827
H 2.044910 1.574810 -0.474205
9
Time step 1118
C -1.003044 0.007174 -0.323603
F -1.162213 0.094849 -1.615204
F -1.277790 1.137891 0.373285
F -1.497354 -1.128992 0.138013
S 0.859183 -0.138319 0.273518
O 0.680521 -0.372652 1.717237
O 1.661279 -1.098187 -0.557229
O 1.240683 1.519517 -0.122400
H 2.052558 1.574296 -0.481900
9
Time step 1119
C -1.005505 0.007162 -0.323473
F -1.162393 0.094777 -1.614898
F -1.276716 1.137463 0.373248
F -1.497879 -1.128886 0.137661
S 0.859138 -0.137371 0.273864
O 0.680185 -0.372663 1.716918
O 1.663083 -1.098343 -0.557547
O 1.240203 1.518300 -0.121958
H 2.060689 1.573777 -0.489804
9
Time step 1120
C -1.007937 0.007152 -0.323330
F -1.162576 0.094708 -1.614593
F -1.275651 1.137029 0.373205
F -1.498409 -1.128779 0.137311
S 0.859092 -0.136425 0.274207
O 0.679852 -0.372672 1.716593
O 1.664883 -1.098488 -0.557859
O 1.239696 1.517072 -0.121500
H 2.069227 1.573246 -0.497884
9
Time step 1121
C -1.010342 0.007146 -0.323173
F -1.162761 0.094641 -1.614289
F -1.274595 1.136591 0.373159
F -1.498945 -1.128669 0.136961
S 0.859046 -0.135481 0.274545
O 0.679523 -0.372676 1.716264
O 1.666678 -1.098623 -0.558165
O 1.239168 1.515834 -0.121030
H 2.078096 1.572697 -0.506108
9
Time step 1122
C -1.012720 0.007143 -0.323002
F -1.162946 0.094576 -1.613987
F -1.273547 1.136147 0.373109
F -1.499486 -1.128557 0.136611
S 0.859000 -0.134540 0.274878
O 0.679198 -0.372677 1.715930
O 1.668468 -1.098748 -0.558464
O 1.238623 1.514586 -0.120549
H 2.087225 1.572126 -0.514445
9
Time step 1123
C -1.015073 0.007142 -0.322819
F -1.163133 0.094513 -1.613685
F -1.272507 1.135699 0.373054
F -1.500032 -1.128442 0.136262
S 0.858956 -0.133601 0.275206
O 0.678876 -0.372673 1.715591
O 1.670252 -1.098861 -0.558757
O 1.238064 1.513330 -0.120059
H 2.096548 1.571527 -0.522868
9
Time step 1124
C -1.017401 0.007144 -0.322624
F -1.163321 0.094453 -1.613384
F -1.271476 1.135245 0.372996
F -1.500583 -1.128324 0.135914
S 0.858912 -0.132667 0.275529
O 0.678557 -0.372665 1.715248
O 1.672030 -1.098964 -0.559043
O 1.237495 1.512065 -0.119562
H 2.106003 1.570899 -0.531348
9
Time step 1125
C -1.019700 0.007148 -0.322417
F -1.163510 0.094395 -1.613085
F -1.270454 1.134786 0.372934
F -1.501139 -1.128203 0.135567
S 0.858869 -0.131737 0.275846
O 0.678242 -0.372652 1.714902
O 1.673803 -1.099056 -0.559322
O 1.236919 1.510793 -0.119059
H 2.115536 1.570239 -0.539859
9
Time step 1126
C -1.021970 0.007152 -0.322198
F -1.163702 0.094341 -1.612788
F -1.269440 1.134322 0.372867
F -1.501702 -1.128079 0.135221
S 0.858828 -0.130811 0.276158
O 0.677930 -0.372634 1.714553
O 1.675569 -1.099135 -0.559595
O 1.236340 1.509513 -0.118552
H 2.125096 1.569547 -0.548376
9
Time step 1127
C -1.024209 0.007157 -0.321969
F -1.163897 0.094290 -1.612493
F -1.268435 1.133854 0.372797
F -1.502271 -1.127953 0.134877
S 0.858788 -0.129890 0.276465
O 0.677622 -0.372612 1.714201
O 1.677329 -1.099203 -0.559860
O 1.235760 1.508226 -0.118042
H 2.134634 1.568818 -0.556876
9
Time step 1128
C -1.026415 0.007162 -0.321730
F -1.164096 0.094242 -1.612201
F -1.267440 1.133382 0.372722
F -1.502847 -1.127825 0.134535
S 0.858750 -0.128973 0.276768
O 0.677318 -0.372586 1.713845
O 1.679082 -1.099258 -0.560118
O 1.235183 1.506932 -0.117531
H 2.144109 1.568052 -0.565336
9
Time step 1129
C -1.028588 0.007168 -0.321479
F -1.164297 0.094196 -1.611912
F -1.266455 1.132908 0.372644
F -1.503430 -1.127695 0.134195
S 0.858713 -0.128061 0.277065
O 0.677019 -0.372556 1.713485
O 1.680828 -1.099301 -0.560370
O 1.234612 1.505633 -0.117020
H 2.153480 1.567243 -0.573734
9
Time step 1130
C -1.030729 0.007174 -0.321219
F -1.164502 0.094152 -1.611623
F -1.265480 1.132431 0.372561
F -1.504020 -1.127562 0.133855
S 0.858678 -0.127154 0.277358
O 0.676723 -0.372523 1.713122
O 1.682566 -1.099332 -0.560613
O 1.234049 1.504328 -0.116511
H 2.162706 1.566389 -0.582051
9
Time step 1131
C -1.032837 0.007182 -0.320949
F -1.164708 0.094109 -1.611334
F -1.264516 1.131951 0.372474
F -1.504617 -1.127428 0.133516
S 0.858645 -0.126251 0.277644
O 0.676432 -0.372487 1.712755
O 1.684297 -1.099349 -0.560849
O 1.233497 1.503017 -0.116003
H 2.171753 1.565485 -0.590267
9
Time step 1132
C -1.034911 0.007193 -0.320669
F -1.164917 0.094068 -1.611044
F -1.263564 1.131468 0.372383
F -1.505221 -1.127293 0.133177
S 0.858614 -0.125354 0.277923
O 0.676146 -0.372448 1.712386
O 1.686018 -1.099354 -0.561076
O 1.232958 1.501703 -0.115499
H 2.180587 1.564529 -0.598364
9
Time step 1133
C -1.036951 0.007206 -0.320380
F -1.165128 0.094030 -1.610753
F -1.262623 1.130983 0.372288
F -1.505832 -1.127157 0.132840
S 0.858585 -0.124463 0.278195
O 0.675863 -0.372405 1.712014
O 1.687730 -1.099344 -0.561293
O 1.232434 1.500384 -0.115000
H 2.189177 1.563517 -0.606327
9
Time step 1134
C -1.038955 0.007220 -0.320083
F -1.165342 0.093994 -1.610462
F -1.261693 1.130494 0.372188
F -1.506452 -1.127020 0.132505
S 0.858559 -0.123578 0.278458
O 0.675585 -0.372358 1.711640
O 1.689433 -1.099321 -0.561499
O 1.231926 1.499062 -0.114505
H 2.197498 1.562447 -0.614141
9
Time step 1135
C -1.040919 0.007235 -0.319777
F -1.165559 0.093961 -1.610173
F -1.260774 1.130003 0.372086
F -1.507080 -1.126883 0.132171
S 0.858534 -0.122700 0.278713
O 0.675311 -0.372308 1.711264
O 1.691125 -1.099282 -0.561694
O 1.231437 1.497738 -0.114017
H 2.205527 1.561320 -0.621791
9
Time step 1136
C -1.042843 0.007249 -0.319464
F -1.165780 0.093932 -1.609886
F -1.259866 1.129510 0.371981
F -1.507717 -1.126747 0.131841
S 0.858512 -0.121828 0.278959
O 0.675042 -0.372253 1.710886
O 1.692807 -1.099228 -0.561877
O 1.230967 1.496410 -0.113536
H 2.213245 1.560132 -0.629266
9
Time step 1137
C -1.044724 0.007260 -0.319143
F -1.166006 0.093906 -1.609602
F -1.258969 1.129016 0.371874
F -1.508363 -1.126612 0.131513
S 0.858492 -0.120964 0.279197
O 0.674776 -0.372195 1.710506
O 1.694479 -1.099158 -0.562047
O 1.230518 1.495081 -0.113063
H 2.220634 1.558885 -0.636555
9
Time step 1138
C -1.046563 0.007267 -0.318813
F -1.166236 0.093885 -1.609323
F -1.258083 1.128522 0.371767
F -1.509019 -1.126477 0.131188
S 0.858473 -0.120107 0.279427
O 0.674515 -0.372133 1.710123
O 1.696141 -1.099072 -0.562206
O 1.230090 1.493749 -0.112599
H 2.227680 1.557576 -0.643651
9
Time step 1139
C -1.048360 0.007271 -0.318474
F -1.166470 0.093866 -1.609048
F -1.257209 1.128028 0.371658
F -1.509685 -1.126342 0.130865
S 0.858457 -0.119257 0.279649
O 0.674259 -0.372068 1.709737
O 1.697792 -1.098970 -0.562352
O 1.229685 1.492415 -0.112145
H 2.234371 1.556205 -0.650545
9
Time step 1140
C -1.050114 0.007272 -0.318124
F -1.166707 0.093852 -1.608777
F -1.256348 1.127534 0.371547
F -1.510359 -1.126207 0.130546
S 0.858441 -0.118415 0.279863
O 0.674006 -0.372000 1.709349
O 1.699434 -1.098851 -0.562487
O 1.229303 1.491079 -0.111701
H 2.240693 1.554770 -0.657233
9
Time step 1141
C -1.051826 0.007273 -0.317762
F -1.166947 0.093840 -1.608510
F -1.255498 1.127038 0.371433
F -1.511042 -1.126072 0.130229
S 0.858427 -0.117581 0.280068
O 0.673758 -0.371929 1.708958
O 1.701066 -1.098716 -0.562611
O 1.228944 1.489741 -0.111267
H 2.246638 1.553270 -0.663709
9
Time step 1142
C -1.053497 0.007275 -0.317388
F -1.167190 0.093832 -1.608246
F -1.254662 1.126542 0.371317
F -1.511733 -1.125938 0.129914
S 0.858415 -0.116755 0.280266
O 0.673513 -0.371855 1.708565
O 1.702689 -1.098564 -0.562724
O 1.228610 1.488400 -0.110845
H 2.252194 1.551705 -0.669968
9
Time step 1143
C -1.055128 0.007279 -0.317001
F -1.167435 0.093825 -1.607986
F -1.253838 1.126044 0.371199
F -1.512433 -1.125803 0.129602
S 0.858405 -0.115936 0.280455
O 0.673273 -0.371777 1.708171
O 1.704302 -1.098396 -0.562826
O 1.228301 1.487056 -0.110434
H 2.257357 1.550074 -0.676008
9
Time step 1144
C -1.056720 0.007285 -0.316604
F -1.167684 0.093821 -1.607730
F -1.253026 1.125545 0.371079
F -1.513141 -1.125668 0.129292
S 0.858396 -0.115124 0.280637
O 0.673038 -0.371697 1.707776
O 1.705905 -1.098211 -0.562917
O 1.228017 1.485710 -0.110034
H 2.262122 1.548375 -0.681824
9
Time step 1145
C -1.058272 0.007292 -0.316197
F -1.167935 0.093819 -1.607478
F -1.252226 1.125046 0.370957
F -1.513858 -1.125535 0.128984
S 0.858389 -0.114321 0.280810
O 0.672806 -0.371613 1.707380
O 1.707499 -1.098010 -0.562998
O 1.227758 1.484360 -0.109645
H 2.266484 1.546607 -0.687411
9
Time step 1146
C -1.059785 0.007298 -0.315782
F -1.168191 0.093819 -1.607229
F -1.251438 1.124547 0.370834
F -1.514583 -1.125401 0.128679
S 0.858384 -0.113525 0.280974
O 0.672578 -0.371526 1.706984
O 1.709082 -1.097791 -0.563068
O 1.227525 1.483008 -0.109268
H 2.270443 1.544771 -0.692766
9
Time step 1147
C -1.061255 0.007302 -0.315360
F -1.168450 0.093823 -1.606984
F -1.250663 1.124050 0.370709
F -1.515316 -1.125269 0.128375
S 0.858383 -0.112737 0.281130
O 0.672353 -0.371435 1.706588
O 1.710656 -1.097555 -0.563127
O 1.227318 1.481653 -0.108901
H 2.273997 1.542865 -0.697884
9
Time step 1148
C -1.062683 0.007304 -0.314933
F -1.168715 0.093829 -1.606741
F -1.249900 1.123554 0.370584
F -1.516058 -1.125136 0.128075
S 0.858383 -0.111959 0.281275
O 0.672132 -0.371339 1.706193
O 1.712219 -1.097301 -0.563175
O 1.227136 1.480297 -0.108546
H 2.277144 1.540891 -0.702760
9
Time step 1149
C -1.064065 0.007303 -0.314501
F -1.168984 0.093838 -1.606499
F -1.249150 1.123058 0.370457
F -1.516808 -1.125005 0.127778
S 0.858387 -0.111190 0.281410
O 0.671914 -0.371239 1.705798
O 1.713771 -1.097030 -0.563210
O 1.226979 1.478938 -0.108201
H 2.279881 1.538849 -0.707391
9
Time step 1150
C -1.065402 0.007301 -0.314065
F -1.169258 0.093850 -1.606259
F -1.248414 1.122564 0.370329
F -1.517566 -1.124873 0.127484
S 0.858395 -0.110429 0.281535
O 0.671698 -0.371135 1.705404
O 1.715311 -1.096742 -0.563234
O 1.226848 1.477577 -0.107868
H 2.282204 1.536743 -0.711773
9
Time step 1151
C -1.066694 0.007299 -0.313626
F -1.169537 0.093865 -1.606021
F -1.247691 1.122070 0.370200
F -1.518334 -1.124742 0.127194
S 0.858406 -0.109679 0.281649
O 0.671485 -0.371027 1.705012
O 1.716841 -1.096437 -0.563245
O 1.226742 1.476215 -0.107546
H 2.284110 1.534574 -0.715903
9
Time step 1152
C -1.067943 0.007296 -0.313184
F -1.169820 0.093883 -1.605784
F -1.246982 1.121576 0.370070
F -1.519110 -1.124611 0.126907
S 0.858421 -0.108937 0.281752
O 0.671275 -0.370916 1.704622
O 1.718360 -1.096114 -0.563245
O 1.226664 1.474851 -0.107236
H 2.285595 1.532346 -0.719780
9
Time step 1153
C -1.069152 0.007292 -0.312740
F -1.170107 0.093903 -1.605550
F -1.246285 1.121083 0.369940
F -1.519895 -1.124481 0.126624
S 0.858439 -0.108204 0.281845
O 0.671069 -0.370800 1.704234
O 1.719867 -1.095775 -0.563233
O 1.226612 1.473485 -0.106939
H 2.286657 1.530059 -0.723401
9
Time step 1154
C -1.070321 0.007286 -0.312295
F -1.170398 0.093927 -1.605319
F -1.245602 1.120591 0.369811
F -1.520689 -1.124352 0.126345
S 0.858461 -0.107480 0.281928
O 0.670865 -0.370681 1.703849
O 1.721364 -1.095418 -0.563210
O 1.226588 1.472117 -0.106654
H 2.287293 1.527714 -0.726768
9
Time step 1155
C -1.071451 0.007276 -0.311846
F -1.170691 0.093953 -1.605091
F -1.244932 1.120102 0.369681
F -1.521491 -1.124225 0.126070
S 0.858485 -0.106766 0.282000
O 0.670665 -0.370558 1.703467
O 1.722851 -1.095044 -0.563175
O 1.226592 1.470748 -0.106381
H 2.287506 1.525312 -0.729878
9
Time step 1156
C -1.072540 0.007263 -0.311394
F -1.170986 0.093984 -1.604866
F -1.244274 1.119615 0.369551
F -1.522302 -1.124099 0.125800
S 0.858511 -0.106060 0.282062
O 0.670469 -0.370431 1.703087
O 1.724327 -1.094653 -0.563130
O 1.226624 1.469379 -0.106122
H 2.287297 1.522852 -0.732733
9
Time step 1157
C -1.073587 0.007246 -0.310938
F -1.171284 0.094019 -1.604643
F -1.243631 1.119130 0.369421
F -1.523122 -1.123976 0.125533
S 0.858540 -0.105365 0.282113
O 0.670276 -0.370300 1.702711
O 1.725792 -1.094246 -0.563075
O 1.226683 1.468009 -0.105875
H 2.286667 1.520332 -0.735331
9
Time step 1158
C -1.074588 0.007227 -0.310476
F -1.171586 0.094057 -1.604424
F -1.243002 1.118648 0.369290
F -1.523951 -1.123854 0.125269
S 0.858572 -0.104679 0.282154
O 0.670087 -0.370165 1.702337
O 1.727247 -1.093821 -0.563008
O 1.226768 1.466640 -0.105641
H 2.285619 1.517751 -0.737671
9
Time step 1159
C -1.075541 0.007206 -0.310007
F -1.171892 0.094099 -1.604207
F -1.242388 1.118168 0.369158
F -1.524792 -1.123735 0.125009
S 0.858606 -0.104005 0.282184
O 0.669902 -0.370025 1.701966
O 1.728690 -1.093380 -0.562929
O 1.226881 1.465271 -0.105420
H 2.284154 1.515110 -0.739753
9
Time step 1160
C -1.076443 0.007184 -0.309531
F -1.172203 0.094144 -1.603994
F -1.241789 1.117690 0.369025
F -1.525643 -1.123618 0.124752
S 0.858644 -0.103340 0.282203
O 0.669721 -0.369882 1.701598
O 1.730122 -1.092922 -0.562839
O 1.227019 1.463904 -0.105212
H 2.282271 1.512408 -0.741576
9
Time step 1161
C -1.077295 0.007160 -0.309049
F -1.172518 0.094192 -1.603785
F -1.241206 1.117215 0.368892
F -1.526506 -1.123502 0.124497
S 0.858684 -0.102687 0.282212
O 0.669544 -0.369735 1.701231
O 1.731543 -1.092446 -0.562736
O 1.227184 1.462537 -0.105017
H 2.279970 1.509646 -0.743138
9
Time step 1162
C -1.078097 0.007133 -0.308562
F -1.172838 0.094244 -1.603580
F -1.240637 1.116742 0.368758
F -1.527379 -1.123387 0.124245
S 0.858728 -0.102046 0.282211
O 0.669372 -0.369584 1.700866
O 1.732952 -1.091953 -0.562620
O 1.227375 1.461173 -0.104836
H 2.277251 1.506824 -0.744439
9
Time step 1163
C -1.078850 0.007102 -0.308071
F -1.173163 0.094299 -1.603377
F -1.240084 1.116271 0.368625
F -1.528264 -1.123273 0.123998
S 0.858775 -0.101416 0.282199
O 0.669204 -0.369430 1.700503
O 1.734349 -1.091441 -0.562492
O 1.227593 1.459811 -0.104669
H 2.274113 1.503942 -0.745477
9
Time step 1164
C -1.079556 0.007067 -0.307580
F -1.173491 0.094358 -1.603178
F -1.239545 1.115803 0.368492
F -1.529158 -1.123160 0.123754
S 0.858825 -0.100799 0.282178
O 0.669040 -0.369272 1.700141
O 1.735734 -1.090910 -0.562350
O 1.227838 1.458451 -0.104516
H 2.270559 1.501002 -0.746252
9
Time step 1165
C -1.080214 0.007027 -0.307087
F -1.173824 0.094421 -1.602981
F -1.239020 1.115339 0.368359
F -1.530061 -1.123049 0.123516
S 0.858877 -0.100194 0.282148
O 0.668880 -0.369110 1.699781
O 1.737106 -1.090360 -0.562197
O 1.228110 1.457095 -0.104378
H 2.266591 1.498003 -0.746762
9
Time step 1166
C -1.080824 0.006983 -0.306595
F -1.174161 0.094487 -1.602787
F -1.238510 1.114878 0.368228
F -1.530974 -1.122940 0.123282
S 0.858932 -0.099602 0.282107
O 0.668723 -0.368945 1.699423
O 1.738466 -1.089791 -0.562030
O 1.228410 1.455742 -0.104255
H 2.262212 1.494946 -0.747008
9
Time step 1167
C -1.081387 0.006937 -0.306103
F -1.174502 0.094555 -1.602597
F -1.238014 1.114421 0.368097
F -1.531896 -1.122833 0.123052
S 0.858990 -0.099023 0.282056
O 0.668570 -0.368778 1.699068
O 1.739813 -1.089203 -0.561851
O 1.228737 1.454393 -0.104146
H 2.257428 1.491834 -0.746989
9
Time step 1168
C -1.081902 0.006889 -0.305610
F -1.174848 0.094625 -1.602410
F -1.237533 1.113970 0.367969
F -1.532828 -1.122729 0.122826
S 0.859050 -0.098456 0.281994
O 0.668421 -0.368608 1.698717
O 1.741146 -1.088595 -0.561659
O 1.229091 1.453048 -0.104051
H 2.252241 1.488666 -0.746705
9
Time step 1169
C -1.082369 0.006839 -0.305114
F -1.175198 0.094696 -1.602227
F -1.237067 1.113524 0.367842
F -1.533770 -1.122628 0.122603
S 0.859113 -0.097901 0.281920
O 0.668277 -0.368436 1.698369
O 1.742465 -1.087970 -0.561453
O 1.229473 1.451708 -0.103970
H 2.246656 1.485448 -0.746157
9
Time step 1170
C -1.082789 0.006785 -0.304615
F -1.175553 0.094769 -1.602047
F -1.236615 1.113082 0.367716
F -1.534721 -1.122528 0.122382
S 0.859180 -0.097358 0.281834
O 0.668136 -0.368262 1.698027
O 1.743771 -1.087326 -0.561234
O 1.229881 1.450371 -0.103902
H 2.240675 1.482180 -0.745347
9
Time step 1171
C -1.083162 0.006725 -0.304114
F -1.175911 0.094845 -1.601870
F -1.236179 1.112645 0.367591
F -1.535680 -1.122430 0.122165
S 0.859249 -0.096828 0.281735
O 0.667999 -0.368085 1.697689
O 1.745063 -1.086664 -0.561000
O 1.230317 1.449038 -0.103848
H 2.234302 1.478867 -0.744275
9
Time step 1172
C -1.083487 0.006658 -0.303611
F -1.176273 0.094925 -1.601695
F -1.235759 1.112211 0.367467
F -1.536648 -1.122332 0.121952
S 0.859322 -0.096311 0.281623
O 0.667866 -0.367904 1.697356
O 1.746340 -1.085984 -0.560751
O 1.230778 1.447710 -0.103807
H 2.227539 1.475512 -0.742944
9
Time step 1173
C -1.083765 0.006584 -0.303109
F -1.176639 0.095009 -1.601520
F -1.235355 1.111782 0.367343
F -1.537625 -1.122235 0.121743
S 0.859397 -0.095808 0.281497
O 0.667736 -0.367719 1.697027
O 1.747604 -1.085286 -0.560489
O 1.231266 1.446385 -0.103780
H 2.220392 1.472119 -0.741355
9
Time step 1174
C -1.083994 0.006504 -0.302609
F -1.177008 0.095097 -1.601346
F -1.234966 1.111356 0.367220
F -1.538610 -1.122139 0.121539
S 0.859475 -0.095318 0.281360
O 0.667609 -0.367531 1.696701
O 1.748853 -1.084569 -0.560212
O 1.231780 1.445064 -0.103765
H 2.212865 1.468690 -0.739509
9
Time step 1175
C -1.084174 0.006418 -0.302113
F -1.177381 0.095189 -1.601173
F -1.234593 1.110935 0.367099
F -1.539604 -1.122045 0.121341
S 0.859557 -0.094842 0.281210
O 0.667485 -0.367338 1.696377
O 1.750089 -1.083835 -0.559922
O 1.232319 1.443747 -0.103764
H 2.204967 1.465226 -0.737408
9
Time step 1176
C -1.084304 0.006329 -0.301622
F -1.177760 0.095283 -1.601002
F -1.234236 1.110521 0.366981
F -1.540608 -1.121955 0.121147
S 0.859642 -0.094381 0.281051
O 0.667364 -0.367141 1.696056
O 1.751311 -1.083081 -0.559618
O 1.232884 1.442434 -0.103776
H 2.196706 1.461729 -0.735054
9
Time step 1177
C -1.084385 0.006236 -0.301137
F -1.178144 0.095379 -1.600834
F -1.233894 1.110113 0.366866
F -1.541621 -1.121868 0.120958
S 0.859730 -0.093933 0.280881
O 0.667247 -0.366940 1.695737
O 1.752519 -1.082309 -0.559302
O 1.233473 1.441125 -0.103801
H 2.188092 1.458198 -0.732452
9
Time step 1178
C -1.084418 0.006140 -0.300654
F -1.178532 0.095477 -1.600670
F -1.233566 1.109713 0.366755
F -1.542645 -1.121784 0.120773
S 0.859822 -0.093499 0.280702
O 0.667134 -0.366736 1.695421
O 1.753714 -1.081517 -0.558973
O 1.234086 1.439819 -0.103838
H 2.179136 1.454634 -0.729606
9
Time step 1179
C -1.084404 0.006039 -0.300175
F -1.178926 0.095576 -1.600510
F -1.233254 1.109320 0.366647
F -1.543678 -1.121705 0.120592
S 0.859916 -0.093078 0.280513
O 0.667024 -0.366527 1.695107
O 1.754896 -1.080707 -0.558633
O 1.234723 1.438516 -0.103888
H 2.169849 1.451035 -0.726524
9
Time step 1180
C -1.084343 0.005930 -0.299696
F -1.179323 0.095679 -1.600355
F -1.232956 1.108933 0.366541
F -1.544721 -1.121628 0.120415
S 0.860013 -0.092671 0.280314
O 0.666919 -0.366314 1.694797
O 1.756066 -1.079878 -0.558281
O 1.235382 1.437216 -0.103950
H 2.160244 1.447401 -0.723215
9
Time step 1181
C -1.084236 0.005813 -0.299219
F -1.179724 0.095787 -1.600202
F -1.232672 1.108552 0.366438
F -1.545775 -1.121552 0.120243
S 0.860112 -0.092278 0.280106
O 0.666817 -0.366096 1.694490
O 1.757225 -1.079030 -0.557917
O 1.236062 1.435918 -0.104025
H 2.150333 1.443732 -0.719689
9
Time step 1182
C -1.084082 0.005686 -0.298743
F -1.180128 0.095900 -1.600053
F -1.232405 1.108176 0.366336
F -1.546838 -1.121478 0.120076
S 0.860214 -0.091898 0.279887
O 0.666719 -0.365873 1.694186
O 1.758371 -1.078164 -0.557543
O 1.236762 1.434623 -0.104111
H 2.140131 1.440028 -0.715959
9
Time step 1183
C -1.083880 0.005549 -0.298268
F -1.180535 0.096018 -1.599906
F -1.232152 1.107806 0.366236
F -1.547911 -1.121405 0.119914
S 0.860317 -0.091533 0.279659
O 0.666625 -0.365645 1.693887
O 1.759507 -1.077278 -0.557157
O 1.237482 1.433331 -0.104208
H 2.129655 1.436290 -0.712037
9
Time step 1184
C -1.083630 0.005403 -0.297796
F -1.180945 0.096140 -1.599761
F -1.231916 1.107440 0.366139
F -1.548995 -1.121334 0.119757
S 0.860422 -0.091183 0.279421
O 0.666535 -0.365412 1.693591
O 1.760630 -1.076373 -0.556759
O 1.238220 1.432042 -0.104315
H 2.118923 1.432520 -0.707935
9
Time step 1185
C -1.083331 0.005251 -0.297326
F -1.181357 0.096266 -1.599620
F -1.231696 1.107081 0.366044
F -1.550090 -1.121264 0.119605
S 0.860529 -0.090847 0.279174
O 0.666449 -0.365175 1.693298
O 1.761741 -1.075449 -0.556350
O 1.238976 1.430758 -0.104432
H 2.107956 1.428718 -0.703667
9
Time step 1186
C -1.082984 0.005094 -0.296860
F -1.181773 0.096395 -1.599482
F -1.231492 1.106727 0.365953
F -1.551195 -1.121196 0.119457
S 0.860639 -0.090526 0.278916
O 0.666367 -0.364934 1.693010
O 1.762840 -1.074505 -0.555930
O 1.239748 1.429478 -0.104558
H 2.096779 1.424887 -0.699249
9
Time step 1187
C -1.082588 0.004934 -0.296395
F -1.182193 0.096526 -1.599348
F -1.231304 1.106380 0.365864
F -1.552310 -1.121132 0.119314
S 0.860752 -0.090221 0.278649
O 0.666289 -0.364690 1.692725
O 1.763926 -1.073541 -0.555497
O 1.240534 1.428204 -0.104690
H 2.085417 1.421028 -0.694698
9
Time step 1188
C -1.082145 0.004770 -0.295933
F -1.182616 0.096659 -1.599216
F -1.231132 1.106040 0.365777
F -1.553435 -1.121070 0.119175
S 0.860867 -0.089932 0.278371
O 0.666214 -0.364442 1.692445
O 1.764999 -1.072558 -0.555052
O 1.241333 1.426934 -0.104829
H 2.073899 1.417145 -0.690034
9
Time step 1189
C -1.081654 0.004602 -0.295474
F -1.183044 0.096795 -1.599087
F -1.230975 1.105706 0.365692
F -1.554569 -1.121010 0.119041
S 0.860985 -0.089658 0.278083
O 0.666143 -0.364191 1.692169
O 1.766058 -1.071555 -0.554594
O 1.242142 1.425669 -0.104973
H 2.062259 1.413241 -0.685280
9
Time step 1190
C -1.081117 0.004431 -0.295019
F -1.183476 0.096934 -1.598960
F -1.230832 1.105378 0.365610
F -1.555711 -1.120953 0.118911
S 0.861105 -0.089401 0.277785
O 0.666075 -0.363936 1.691898
O 1.767104 -1.070532 -0.554123
O 1.242959 1.424410 -0.105119
H 2.050532 1.409319 -0.680461
9
Time step 1191
C -1.080533 0.004253 -0.294568
F -1.183912 0.097075 -1.598835
F -1.230704 1.105057 0.365529
F -1.556861 -1.120897 0.118785
S 0.861229 -0.089160 0.277476
O 0.666010 -0.363677 1.691630
O 1.768137 -1.069489 -0.553639
O 1.243782 1.423155 -0.105267
H 2.038759 1.405384 -0.675608
9
Time step 1192
C -1.079904 0.004067 -0.294124
F -1.184353 0.097219 -1.598709
F -1.230591 1.104743 0.365452
F -1.558019 -1.120842 0.118662
S 0.861356 -0.088935 0.277157
O 0.665947 -0.363414 1.691367
O 1.769155 -1.068428 -0.553143
O 1.244607 1.421906 -0.105413
H 2.026986 1.401440 -0.670754
9
Time step 1193
C -1.079229 0.003871 -0.293686
F -1.184799 0.097367 -1.598585
F -1.230493 1.104436 0.365377
F -1.559185 -1.120788 0.118544
S 0.861486 -0.088726 0.276828
O 0.665887 -0.363147 1.691108
O 1.770159 -1.067347 -0.552633
O 1.245432 1.420662 -0.105556
H 2.015266 1.397490 -0.665934
9
Time step 1194
C -1.078509 0.003663 -0.293257
F -1.185248 0.097518 -1.598461
F -1.230411 1.104137 0.365305
F -1.560358 -1.120734 0.118431
S 0.861620 -0.088534 0.276488
O 0.665829 -0.362876 1.690852
O 1.771149 -1.066249 -0.552111
O 1.246254 1.419424 -0.105693
H 2.003653 1.393538 -0.661187
9
Time step 1195
C -1.077744 0.003442 -0.292835
F -1.185700 0.097673 -1.598336
F -1.230344 1.103845 0.365237
F -1.561539 -1.120680 0.118322
S 0.861755 -0.088358 0.276139
O 0.665774 -0.362600 1.690600
O 1.772125 -1.065132 -0.551575
O 1.247070 1.418194 -0.105822
H 1.992209 1.389586 -0.656557
9
Time step 1196
C -1.076934 0.003211 -0.292420
F -1.186156 0.097831 -1.598212
F -1.230293 1.103560 0.365170
F -1.562728 -1.120626 0.118218
S 0.861893 -0.088198 0.275779
O 0.665722 -0.362321 1.690351
O 1.773087 -1.063999 -0.551027
O 1.247876 1.416971 -0.105940
H 1.980996 1.385634 -0.652086
9
Time step 1197
C -1.076079 0.002970 -0.292012
F -1.186615 0.097993 -1.598088
F -1.230258 1.103281 0.365106
F -1.563925 -1.120573 0.118119
S 0.862033 -0.088055 0.275409
O 0.665674 -0.362038 1.690104
O 1.774034 -1.062847 -0.550467
O 1.248669 1.415756 -0.106044
H 1.970078 1.381682 -0.647824
9
Time step 1198
C -1.075178 0.002721 -0.291610
F -1.187077 0.098158 -1.597963
F -1.230239 1.103009 0.365045
F -1.565129 -1.120521 0.118024
S 0.862173 -0.087929 0.275030
O 0.665628 -0.361751 1.689861
O 1.774969 -1.061679 -0.549894
O 1.249446 1.414551 -0.106132
H 1.959520 1.377728 -0.643817
9
Time step 1199
C -1.074231 0.002467 -0.291215
F -1.187543 0.098325 -1.597840
F -1.230236 1.102743 0.364987
F -1.566341 -1.120471 0.117934
S 0.862314 -0.087821 0.274643
O 0.665587 -0.361460 1.689619
O 1.775890 -1.060492 -0.549309
O 1.250202 1.413355 -0.106201
H 1.949387 1.373770 -0.640119
9
Time step 1200
C -1.073239 0.002208 -0.290825
F -1.188013 0.098494 -1.597718
F -1.230247 1.102483 0.364932
F -1.567560 -1.120422 0.117848
S 0.862455 -0.087731 0.274248
O 0.665548 -0.361164 1.689380
O 1.776798 -1.059288 -0.548713
O 1.250933 1.412168 -0.106248
H 1.939745 1.369803 -0.636781
9
Time step 1201
C -1.072204 0.001945 -0.290440
F -1.188486 0.098665 -1.597599
F -1.230273 1.102231 0.364881
F -1.568787 -1.120376 0.117766
S 0.862596 -0.087658 0.273845
O 0.665513 -0.360864 1.689143
O 1.777694 -1.058066 -0.548105
O 1.251637 1.410992 -0.106270
H 1.930659 1.365821 -0.633859
9
Time step 1202
C -1.071126 0.001675 -0.290062
F -1.188963 0.098837 -1.597483
F -1.230313 1.101985 0.364835
F -1.570021 -1.120331 0.117687
S 0.862738 -0.087603 0.273435
O 0.665482 -0.360560 1.688907
O 1.778576 -1.056825 -0.547486
O 1.252307 1.409826 -0.106264
H 1.922194 1.361819 -0.631408
9
Time step 1203
C -1.070008 0.001396 -0.289688
F -1.189443 0.099011 -1.597370
F -1.230368 1.101747 0.364794
F -1.571262 -1.120287 0.117613
S 0.862880 -0.087567 0.273018
O 0.665455 -0.360251 1.688673
O 1.779446 -1.055566 -0.546855
O 1.252941 1.408671 -0.106225
H 1.914414 1.357788 -0.629484
9
Time step 1204
C -1.068848 0.001106 -0.289321
F -1.189926 0.099189 -1.597259
F -1.230438 1.101516 0.364757
F -1.572511 -1.120243 0.117543
S 0.863022 -0.087547 0.272594
O 0.665431 -0.359937 1.688442
O 1.780303 -1.054290 -0.546213
O 1.253535 1.407526 -0.106151
H 1.907379 1.353721 -0.628140
9
Time step 1205
C -1.067647 0.000806 -0.288960
F -1.190410 0.099370 -1.597152
F -1.230523 1.101292 0.364724
F -1.573766 -1.120200 0.117478
S 0.863165 -0.087545 0.272162
O 0.665412 -0.359619 1.688212
O 1.781148 -1.052995 -0.545561
O 1.254084 1.406393 -0.106039
H 1.901140 1.349611 -0.627425
9
Time step 1206
C -1.066403 0.000496 -0.288605
F -1.190896 0.099554 -1.597046
F -1.230623 1.101075 0.364695
F -1.575030 -1.120158 0.117418
S 0.863308 -0.087559 0.271723
O 0.665397 -0.359296 1.687985
O 1.781979 -1.051683 -0.544898
O 1.254588 1.405270 -0.105885
H 1.895741 1.345451 -0.627382
9
Time step 1207
C -1.065116 0.000176 -0.288257
F -1.191385 0.099742 -1.596941
F -1.230739 1.100865 0.364669
F -1.576302 -1.120118 0.117361
S 0.863450 -0.087589 0.271276
O 0.665387 -0.358968 1.687761
O 1.782797 -1.050354 -0.544224
O 1.255043 1.404158 -0.105689
H 1.891214 1.341238 -0.628043
9
Time step 1208
C -1.063784 -0.000151 -0.287916
F -1.191875 0.099932 -1.596837
F -1.230869 1.100662 0.364646
F -1.577584 -1.120080 0.117309
S 0.863592 -0.087635 0.270824
O 0.665382 -0.358637 1.687540
O 1.783602 -1.049007 -0.543540
O 1.255448 1.403057 -0.105448
H 1.887578 1.336968 -0.629432
9
Time step 1209
C -1.062408 -0.000486 -0.287582
F -1.192368 0.100125 -1.596735
F -1.231013 1.100465 0.364626
F -1.578873 -1.120045 0.117261
S 0.863733 -0.087698 0.270364
O 0.665382 -0.358302 1.687320
O 1.784394 -1.047644 -0.542846
O 1.255802 1.401968 -0.105161
H 1.884840 1.332639 -0.631562
9
Time step 1210
C -1.060988 -0.000828 -0.287255
F -1.192864 0.100320 -1.596635
F -1.231171 1.100276 0.364611
F -1.580171 -1.120011 0.117216
S 0.863874 -0.087776 0.269898
O 0.665388 -0.357962 1.687103
O 1.785171 -1.046263 -0.542141
O 1.256107 1.400892 -0.104829
H 1.882997 1.328251 -0.634435
9
Time step 1211
C -1.059526 -0.001181 -0.286935
F -1.193362 0.100517 -1.596536
F -1.231344 1.100094 0.364599
F -1.581476 -1.119977 0.117175
S 0.864014 -0.087870 0.269425
O 0.665398 -0.357620 1.686888
O 1.785935 -1.044866 -0.541424
O 1.256362 1.399828 -0.104452
H 1.882035 1.323804 -0.638046
9
Time step 1212
C -1.058022 -0.001545 -0.286622
F -1.193863 0.100718 -1.596439
F -1.231531 1.099919 0.364590
F -1.582786 -1.119943 0.117139
S 0.864155 -0.087982 0.268945
O 0.665413 -0.357274 1.686674
O 1.786685 -1.043453 -0.540696
O 1.256569 1.398778 -0.104031
H 1.881932 1.319298 -0.642384
9
Time step 1213
C -1.056479 -0.001924 -0.286316
F -1.194366 0.100922 -1.596343
F -1.231734 1.099750 0.364585
F -1.584102 -1.119907 0.117106
S 0.864296 -0.088111 0.268459
O 0.665431 -0.356924 1.686462
O 1.787420 -1.042023 -0.539956
O 1.256731 1.397742 -0.103568
H 1.882660 1.314733 -0.647430
9
Time step 1214
C -1.054899 -0.002317 -0.286018
F -1.194872 0.101130 -1.596247
F -1.231952 1.099589 0.364583
F -1.585424 -1.119868 0.117078
S 0.864439 -0.088258 0.267967
O 0.665453 -0.356570 1.686250
O 1.788142 -1.040575 -0.539205
O 1.256849 1.396720 -0.103063
H 1.884182 1.310111 -0.653161
9
Time step 1215
C -1.053281 -0.002725 -0.285729
F -1.195380 0.101342 -1.596151
F -1.232184 1.099434 0.364583
F -1.586750 -1.119827 0.117053
S 0.864584 -0.088423 0.267468
O 0.665477 -0.356212 1.686040
O 1.788850 -1.039111 -0.538443
O 1.256926 1.395713 -0.102519
H 1.886458 1.305433 -0.659544
9
Time step 1216
C -1.051628 -0.003145 -0.285449
F -1.195891 0.101557 -1.596055
F -1.232431 1.099285 0.364587
F -1.588083 -1.119785 0.117032
S 0.864730 -0.088607 0.266965
O 0.665506 -0.355849 1.685831
O 1.789544 -1.037629 -0.537671
O 1.256966 1.394720 -0.101939
H 1.889437 1.300704 -0.666544
9
Time step 1217
C -1.049942 -0.003576 -0.285178
F -1.196404 0.101775 -1.595958
F -1.232690 1.099143 0.364593
F -1.589421 -1.119742 0.117015
S 0.864877 -0.088809 0.266457
O 0.665537 -0.355482 1.685623
O 1.790226 -1.036130 -0.536889
O 1.256971 1.393740 -0.101326
H 1.893066 1.295928 -0.674115
9
Time step 1218
C -1.048224 -0.004015 -0.284914
F -1.196918 0.101996 -1.595861
F -1.232962 1.099007 0.364601
F -1.590765 -1.119700 0.117002
S 0.865025 -0.089029 0.265945
O 0.665573 -0.355110 1.685415
O 1.790897 -1.034615 -0.536098
O 1.256946 1.392773 -0.100682
H 1.897284 1.291113 -0.682206
9
Time step 1219
C -1.046473 -0.004460 -0.284659
F -1.197434 0.102219 -1.595765
F -1.233246 1.098877 0.364613
F -1.592115 -1.119658 0.116992
S 0.865172 -0.089267 0.265428
O 0.665611 -0.354733 1.685208
O 1.791555 -1.033083 -0.535297
O 1.256895 1.391819 -0.100012
H 1.902026 1.286265 -0.690761
9
Time step 1220
C -1.044690 -0.004912 -0.284411
F -1.197951 0.102444 -1.595668
F -1.233543 1.098752 0.364627
F -1.593469 -1.119615 0.116986
S 0.865320 -0.089522 0.264907
O 0.665652 -0.354352 1.685001
O 1.792203 -1.031534 -0.534488
O 1.256821 1.390878 -0.099319
H 1.907226 1.281395 -0.699724
9
Time step 1221
C -1.042874 -0.005370 -0.284170
F -1.198470 0.102671 -1.595571
F -1.233852 1.098632 0.364643
F -1.594829 -1.119572 0.116985
S 0.865467 -0.089796 0.264381
O 0.665696 -0.353967 1.684795
O 1.792839 -1.029970 -0.533670
O 1.256731 1.389948 -0.098607
H 1.912818 1.276510 -0.709035
9
Time step 1222
C -1.041024 -0.005836 -0.283938
F -1.198991 0.102900 -1.595473
F -1.234176 1.098517 0.364662
F -1.596194 -1.119527 0.116988
S 0.865614 -0.090087 0.263852
O 0.665743 -0.353579 1.684590
O 1.793465 -1.028390 -0.532844
O 1.256627 1.389031 -0.097880
H 1.918739 1.271617 -0.718640
9
Time step 1223
C -1.039139 -0.006310 -0.283715
F -1.199513 0.103131 -1.595376
F -1.234513 1.098408 0.364685
F -1.597563 -1.119481 0.116994
S 0.865761 -0.090396 0.263318
O 0.665792 -0.353186 1.684386
O 1.794078 -1.026794 -0.532010
O 1.256514 1.388125 -0.097141
H 1.924930 1.266726 -0.728486
9
Time step 1224
C -1.037221 -0.006793 -0.283502
F -1.200038 0.103364 -1.595277
F -1.234864 1.098304 0.364711
F -1.598936 -1.119434 0.117004
S 0.865909 -0.090723 0.262782
O 0.665843 -0.352790 1.684183
O 1.794681 -1.025183 -0.531169
O 1.256395 1.387230 -0.096394
H 1.931333 1.261844 -0.738525
9
Time step 1225
C -1.035270 -0.007283 -0.283299
F -1.200566 0.103599 -1.595178
F -1.235229 1.098207 0.364740
F -1.600313 -1.119385 0.117017
S 0.866056 -0.091067 0.262243
O 0.665897 -0.352390 1.683980
O 1.795271 -1.023558 -0.530319
O 1.256273 1.386345 -0.095641
H 1.937899 1.256978 -0.748709
9
Time step 1226
C -1.033289 -0.007782 -0.283104
F -1.201095 0.103836 -1.595079
F -1.235605 1.098114 0.364772
F -1.601693 -1.119335 0.117033
S 0.866204 -0.091428 0.261701
O 0.665953 -0.351985 1.683777
O 1.795850 -1.021917 -0.529462
O 1.256151 1.385470 -0.094886
H 1.944577 1.252137 -0.758995
9
Time step 1227
C -1.031281 -0.008287 -0.282917
F -1.201625 0.104076 -1.594980
F -1.235993 1.098027 0.364808
F -1.603077 -1.119284 0.117051
S 0.866353 -0.091807 0.261157
O 0.666012 -0.351575 1.683574
O 1.796417 -1.020263 -0.528598
O 1.256030 1.384605 -0.094130
H 1.951324 1.247330 -0.769341
9
Time step 1228
C -1.029245 -0.008801 -0.282736
F -1.202155 0.104318 -1.594882
F -1.236393 1.097944 0.364847
F -1.604463 -1.119232 0.117073
S 0.866502 -0.092203 0.260610
O 0.666073 -0.351160 1.683371
O 1.796972 -1.018596 -0.527727
O 1.255913 1.383748 -0.093376
H 1.958098 1.242566 -0.779705
9
Time step 1229
C -1.027182 -0.009323 -0.282561
F -1.202686 0.104562 -1.594784
F -1.236805 1.097865 0.364889
F -1.605852 -1.119177 0.117099
S 0.866652 -0.092616 0.260060
O 0.666136 -0.350739 1.683166
O 1.797516 -1.016916 -0.526848
O 1.255803 1.382901 -0.092626
H 1.964859 1.237854 -0.790047
9
Time step 1230
C -1.025088 -0.009855 -0.282392
F -1.203218 0.104809 -1.594687
F -1.237229 1.097791 0.364933
F -1.607245 -1.119121 0.117127
S 0.866802 -0.093046 0.259508
O 0.666202 -0.350314 1.682960
O 1.798047 -1.015225 -0.525963
O 1.255701 1.382063 -0.091882
H 1.971571 1.233201 -0.800332
9
Time step 1231
C -1.022964 -0.010398 -0.282228
F -1.203749 0.105059 -1.594589
F -1.237667 1.097721 0.364980
F -1.608641 -1.119061 0.117158
S 0.866953 -0.093492 0.258952
O 0.666269 -0.349884 1.682754
O 1.798567 -1.013522 -0.525071
O 1.255610 1.381234 -0.091147
H 1.978203 1.228614 -0.810525
9
Time step 1232
C -1.020808 -0.010953 -0.282071
F -1.204282 0.105310 -1.594491
F -1.238117 1.097657 0.365031
F -1.610041 -1.119000 0.117192
S 0.867103 -0.093954 0.258395
O 0.666340 -0.349450 1.682547
O 1.799075 -1.011809 -0.524172
O 1.255533 1.380415 -0.090423
H 1.984726 1.224099 -0.820595
9
Time step 1233
C -1.018621 -0.011520 -0.281921
F -1.204815 0.105564 -1.594393
F -1.238580 1.097598 0.365085
F -1.611445 -1.118936 0.117228
S 0.867252 -0.094430 0.257835
O 0.666414 -0.349013 1.682339
O 1.799571 -1.010086 -0.523268
O 1.255472 1.379605 -0.089712
H 1.991114 1.219660 -0.830517
9
Time step 1234
C -1.016405 -0.012098 -0.281779
F -1.205348 0.105819 -1.594295
F -1.239055 1.097544 0.365142
F -1.612851 -1.118869 0.117267
S 0.867400 -0.094922 0.257274
O 0.666491 -0.348572 1.682131
O 1.800057 -1.008351 -0.522358
O 1.255427 1.378804 -0.089016
H 1.997347 1.215298 -0.840265
9
Time step 1235
C -1.014164 -0.012686 -0.281644
F -1.205881 0.106076 -1.594197
F -1.239540 1.097494 0.365201
F -1.614261 -1.118799 0.117309
S 0.867544 -0.095429 0.256711
O 0.666573 -0.348130 1.681923
O 1.800532 -1.006607 -0.521443
O 1.255400 1.378012 -0.088335
H 2.003407 1.211016 -0.849820
9
Time step 1236
C -1.011898 -0.013283 -0.281516
F -1.206414 0.106335 -1.594099
F -1.240035 1.097447 0.365262
F -1.615672 -1.118726 0.117355
S 0.867687 -0.095951 0.256147
O 0.666660 -0.347685 1.681713
O 1.800997 -1.004851 -0.520521
O 1.255393 1.377230 -0.087670
H 2.009276 1.206817 -0.859163
9
Time step 1237
C -1.009610 -0.013886 -0.281397
F -1.206947 0.106595 -1.594001
F -1.240542 1.097402 0.365325
F -1.617085 -1.118650 0.117405
S 0.867827 -0.096488 0.255582
O 0.666751 -0.347237 1.681503
O 1.801452 -1.003086 -0.519594
O 1.255405 1.376456 -0.087023
H 2.014939 1.202700 -0.868279
9
Time step 1238
C -1.007299 -0.014497 -0.281284
F -1.207480 0.106857 -1.593903
F -1.241059 1.097360 0.365388
F -1.618499 -1.118570 0.117458
S 0.867965 -0.097039 0.255016
O 0.666847 -0.346788 1.681291
O 1.801898 -1.001310 -0.518660
O 1.255437 1.375690 -0.086394
H 2.020384 1.198667 -0.877153
9
Time step 1239
C -1.004965 -0.015115 -0.281178
F -1.208012 0.107121 -1.593803
F -1.241587 1.097320 0.365452
F -1.619915 -1.118487 0.117515
S 0.868101 -0.097606 0.254449
O 0.666948 -0.346336 1.681077
O 1.802333 -0.999524 -0.517721
O 1.255490 1.374931 -0.085783
H 2.025597 1.194720 -0.885773
9
Time step 1240
C -1.002608 -0.015743 -0.281078
F -1.208544 0.107388 -1.593702
F -1.242127 1.097284 0.365517
F -1.621332 -1.118400 0.117574
S 0.868237 -0.098187 0.253881
O 0.667052 -0.345882 1.680861
O 1.802760 -0.997728 -0.516777
O 1.255564 1.374179 -0.085192
H 2.030565 1.190859 -0.894128
9
Time step 1241
C -1.000231 -0.016382 -0.280985
F -1.209076 0.107657 -1.593598
F -1.242678 1.097251 0.365581
F -1.622751 -1.118309 0.117635
S 0.868372 -0.098783 0.253313
O 0.667161 -0.345425 1.680644
O 1.803176 -0.995922 -0.515829
O 1.255660 1.373434 -0.084621
H 2.035280 1.187088 -0.902207
9
Time step 1242
C -0.997834 -0.017034 -0.280898
F -1.209607 0.107929 -1.593492
F -1.243240 1.097223 0.365647
F -1.624172 -1.118213 0.117699
S 0.868507 -0.099393 0.252745
O 0.667273 -0.344964 1.680425
O 1.803584 -0.994106 -0.514876
O 1.255778 1.372696 -0.084073
H 2.039731 1.183406 -0.910001
9
Time step 1243
C -0.995422 -0.017699 -0.280818
F -1.210138 0.108204 -1.593385
F -1.243810 1.097199 0.365713
F -1.625592 -1.118114 0.117763
S 0.868641 -0.100017 0.252178
O 0.667387 -0.344502 1.680206
O 1.803983 -0.992280 -0.513920
O 1.255918 1.371965 -0.083546
H 2.043911 1.179815 -0.917500
9
Time step 1244
C -0.992996 -0.018376 -0.280746
F -1.210667 0.108481 -1.593275
F -1.244389 1.097177 0.365780
F -1.627012 -1.118011 0.117830
S 0.868774 -0.100654 0.251611
O 0.667505 -0.344036 1.679986
O 1.804373 -0.990446 -0.512961
O 1.256082 1.371240 -0.083044
H 2.047815 1.176319 -0.924697
9
Time step 1245
C -0.990558 -0.019062 -0.280684
F -1.211195 0.108759 -1.593164
F -1.244976 1.097158 0.365850
F -1.628432 -1.117903 0.117899
S 0.868905 -0.101304 0.251046
O 0.667624 -0.343568 1.679766
O 1.804755 -0.988604 -0.511999
O 1.256270 1.370522 -0.082564
H 2.051439 1.172919 -0.931582
9
Time step 1246
C -0.988107 -0.019753 -0.280631
F -1.211721 0.109038 -1.593051
F -1.245571 1.097139 0.365922
F -1.629851 -1.117791 0.117971
S 0.869035 -0.101966 0.250481
O 0.667747 -0.343098 1.679545
O 1.805128 -0.986753 -0.511034
O 1.256483 1.369811 -0.082109
H 2.054779 1.169618 -0.938148
9
Time step 1247
C -0.985643 -0.020448 -0.280589
F -1.212246 0.109317 -1.592937
F -1.246175 1.097120 0.365997
F -1.631270 -1.117676 0.118046
S 0.869164 -0.102641 0.249916
O 0.667872 -0.342624 1.679323
O 1.805493 -0.984896 -0.510067
O 1.256720 1.369106 -0.081678
H 2.057830 1.166421 -0.944388
9
Time step 1248
C -0.983166 -0.021144 -0.280557
F -1.212769 0.109597 -1.592822
F -1.246788 1.097102 0.366075
F -1.632689 -1.117558 0.118123
S 0.869293 -0.103329 0.249353
O 0.667999 -0.342147 1.679100
O 1.805850 -0.983033 -0.509098
O 1.256983 1.368407 -0.081270
H 2.060588 1.163331 -0.950297
9
Time step 1249
C -0.980675 -0.021841 -0.280533
F -1.213292 0.109876 -1.592705
F -1.247411 1.097083 0.366154
F -1.634110 -1.117436 0.118202
S 0.869422 -0.104030 0.248791
O 0.668128 -0.341666 1.678874
O 1.806199 -0.981163 -0.508126
O 1.257269 1.367714 -0.080887
H 2.063048 1.160352 -0.955868
9
Time step 1250
C -0.978172 -0.022540 -0.280516
F -1.213814 0.110157 -1.592587
F -1.248042 1.097065 0.366234
F -1.635530 -1.117312 0.118285
S 0.869552 -0.104745 0.248230
O 0.668261 -0.341181 1.678645
O 1.806541 -0.979288 -0.507153
O 1.257580 1.367027 -0.080526
H 2.065206 1.157486 -0.961099
9
Time step 1251
C -0.975659 -0.023244 -0.280504
F -1.214334 0.110441 -1.592468
F -1.248683 1.097047 0.366314
F -1.636950 -1.117184 0.118369
S 0.869682 -0.105473 0.247672
O 0.668395 -0.340690 1.678414
O 1.806876 -0.977407 -0.506179
O 1.257915 1.366346 -0.080190
H 2.067058 1.154736 -0.965985
9
Time step 1252
C -0.973139 -0.023955 -0.280494
F -1.214854 0.110726 -1.592348
F -1.249331 1.097029 0.366393
F -1.638369 -1.117052 0.118454
S 0.869812 -0.106214 0.247117
O 0.668531 -0.340194 1.678178
O 1.807204 -0.975523 -0.505205
O 1.258273 1.365670 -0.079878
H 2.068603 1.152101 -0.970526
9
Time step 1253
C -0.970611 -0.024675 -0.280488
F -1.215372 0.111015 -1.592227
F -1.249987 1.097012 0.366472
F -1.639785 -1.116914 0.118542
S 0.869943 -0.106967 0.246566
O 0.668669 -0.339694 1.677939
O 1.807527 -0.973634 -0.504232
O 1.258655 1.365000 -0.079591
H 2.069838 1.149580 -0.974721
9
Time step 1254
C -0.968078 -0.025404 -0.280485
F -1.215889 0.111305 -1.592106
F -1.250651 1.096996 0.366550
F -1.641199 -1.116771 0.118630
S 0.870073 -0.107732 0.246019
O 0.668808 -0.339190 1.677696
O 1.807845 -0.971743 -0.503259
O 1.259061 1.364337 -0.079329
H 2.070766 1.147169 -0.978570
9
Time step 1255
C -0.965538 -0.026139 -0.280488
F -1.216404 0.111596 -1.591983
F -1.251324 1.096980 0.366629
F -1.642611 -1.116621 0.118719
S 0.870202 -0.108507 0.245477
O 0.668949 -0.338684 1.677449
O 1.808158 -0.969850 -0.502289
O 1.259490 1.363679 -0.079093
H 2.071388 1.144865 -0.982072
9
Time step 1256
C -0.962991 -0.026880 -0.280497
F -1.216919 0.111888 -1.591858
F -1.252004 1.096963 0.366710
F -1.644020 -1.116465 0.118809
S 0.870331 -0.109291 0.244941
O 0.669092 -0.338175 1.677198
O 1.808468 -0.967956 -0.501322
O 1.259943 1.363027 -0.078883
H 2.071708 1.142665 -0.985228
9
Time step 1257
C -0.960439 -0.027623 -0.280513
F -1.217430 0.112179 -1.591731
F -1.252693 1.096946 0.366792
F -1.645426 -1.116304 0.118901
S 0.870457 -0.110085 0.244409
O 0.669236 -0.337665 1.676945
O 1.808775 -0.966061 -0.500358
O 1.260420 1.362380 -0.078699
H 2.071729 1.140567 -0.988036
9
Time step 1258
C -0.957884 -0.028368 -0.280537
F -1.217939 0.112470 -1.591601
F -1.253389 1.096927 0.366874
F -1.646830 -1.116137 0.118994
S 0.870581 -0.110887 0.243882
O 0.669383 -0.337152 1.676689
O 1.809078 -0.964167 -0.499397
O 1.260920 1.361739 -0.078539
H 2.071452 1.138571 -0.990495
9
Time step 1259
C -0.955327 -0.029114 -0.280568
F -1.218444 0.112762 -1.591468
F -1.254090 1.096905 0.366956
F -1.648230 -1.115966 0.119089
S 0.870702 -0.111697 0.243359
O 0.669531 -0.336637 1.676430
O 1.809380 -0.962274 -0.498439
O 1.261442 1.361104 -0.078405
H 2.070880 1.136678 -0.992601
9
Time step 1260
C -0.952772 -0.029862 -0.280605
F -1.218944 0.113056 -1.591333
F -1.254798 1.096880 0.367037
F -1.649626 -1.115789 0.119187
S 0.870820 -0.112515 0.242840
O 0.669682 -0.336119 1.676169
O 1.809678 -0.960382 -0.497486
O 1.261987 1.360475 -0.078295
H 2.070011 1.134892 -0.994352
9
Time step 1261
C -0.950218 -0.030615 -0.280646
F -1.219441 0.113351 -1.591194
F -1.255510 1.096853 0.367116
F -1.651019 -1.115607 0.119286
S 0.870936 -0.113341 0.242325
O 0.669835 -0.335598 1.675905
O 1.809974 -0.958491 -0.496536
O 1.262554 1.359851 -0.078211
H 2.068846 1.133214 -0.995745
9
Time step 1262
C -0.947666 -0.031373 -0.280691
F -1.219934 0.113648 -1.591053
F -1.256227 1.096824 0.367194
F -1.652406 -1.115419 0.119387
S 0.871048 -0.114174 0.241815
O 0.669991 -0.335076 1.675638
O 1.810268 -0.956603 -0.495590
O 1.263143 1.359233 -0.078151
H 2.067383 1.131648 -0.996776
9
Time step 1263
C -0.945115 -0.032138 -0.280742
F -1.220423 0.113946 -1.590909
F -1.256949 1.096793 0.367270
F -1.653790 -1.115225 0.119489
S 0.871158 -0.115015 0.241310
O 0.670149 -0.334553 1.675369
O 1.810559 -0.954717 -0.494647
O 1.263754 1.358620 -0.078118
H 2.065623 1.130197 -0.997445
9
Time step 1264
C -0.942565 -0.032909 -0.280798
F -1.220910 0.114245 -1.590762
F -1.257678 1.096761 0.367346
F -1.655170 -1.115024 0.119592
S 0.871266 -0.115862 0.240811
O 0.670310 -0.334029 1.675096
O 1.810847 -0.952834 -0.493709
O 1.264388 1.358013 -0.078111
H 2.063564 1.128861 -0.997750
9
Time step 1265
C -0.940017 -0.033688 -0.280861
F -1.221394 0.114543 -1.590613
F -1.258412 1.096729 0.367422
F -1.656545 -1.114816 0.119695
S 0.871371 -0.116715 0.240319
O 0.670474 -0.333505 1.674819
O 1.811133 -0.950953 -0.492776
O 1.265045 1.357412 -0.078130
H 2.061207 1.127641 -0.997695
9
Time step 1266
C -0.937473 -0.034472 -0.280931
F -1.221874 0.114843 -1.590462
F -1.259152 1.096697 0.367498
F -1.657916 -1.114603 0.119800
S 0.871475 -0.117576 0.239833
O 0.670640 -0.332979 1.674539
O 1.811417 -0.949076 -0.491847
O 1.265724 1.356817 -0.078175
H 2.058554 1.126537 -0.997283
9
Time step 1267
C -0.934935 -0.035261 -0.281007
F -1.222349 0.115143 -1.590308
F -1.259897 1.096662 0.367573
F -1.659282 -1.114384 0.119906
S 0.871575 -0.118443 0.239353
O 0.670809 -0.332453 1.674256
O 1.811699 -0.947202 -0.490923
O 1.266427 1.356229 -0.078247
H 2.055607 1.125552 -0.996517
9
Time step 1268
C -0.932405 -0.036053 -0.281089
F -1.222820 0.115444 -1.590151
F -1.260646 1.096625 0.367648
F -1.660643 -1.114159 0.120013
S 0.871673 -0.119319 0.238881
O 0.670980 -0.331924 1.673969
O 1.811980 -0.945331 -0.490004
O 1.267152 1.355648 -0.078346
H 2.052367 1.124686 -0.995402
9
Time step 1269
C -0.929885 -0.036848 -0.281176
F -1.223286 0.115746 -1.589992
F -1.261399 1.096585 0.367721
F -1.661999 -1.113929 0.120122
S 0.871767 -0.120202 0.238416
O 0.671153 -0.331394 1.673678
O 1.812261 -0.943464 -0.489090
O 1.267899 1.355075 -0.078470
H 2.048838 1.123940 -0.993944
9
Time step 1270
C -0.927375 -0.037644 -0.281266
F -1.223747 0.116050 -1.589830
F -1.262156 1.096540 0.367793
F -1.663350 -1.113693 0.120231
S 0.871858 -0.121093 0.237958
O 0.671328 -0.330862 1.673384
O 1.812542 -0.941601 -0.488182
O 1.268670 1.354509 -0.078621
H 2.045023 1.123318 -0.992144
9
Time step 1271
C -0.924875 -0.038441 -0.281361
F -1.224205 0.116353 -1.589665
F -1.262915 1.096491 0.367863
F -1.664696 -1.113449 0.120340
S 0.871944 -0.121991 0.237507
O 0.671506 -0.330327 1.673087
O 1.812825 -0.939743 -0.487280
O 1.269463 1.353950 -0.078797
H 2.040925 1.122822 -0.990004
9
Time step 1272
C -0.922388 -0.039237 -0.281460
F -1.224659 0.116656 -1.589498
F -1.263678 1.096437 0.367932
F -1.666035 -1.113199 0.120450
S 0.872027 -0.122897 0.237065
O 0.671686 -0.329791 1.672785
O 1.813109 -0.937889 -0.486384
O 1.270279 1.353398 -0.079000
H 2.036549 1.122454 -0.987526
9
Time step 1273
C -0.919914 -0.040032 -0.281566
F -1.225108 0.116958 -1.589329
F -1.264444 1.096379 0.368000
F -1.667368 -1.112942 0.120560
S 0.872106 -0.123809 0.236630
O 0.671869 -0.329254 1.672480
O 1.813395 -0.936040 -0.485495
O 1.271118 1.352852 -0.079228
H 2.031896 1.122216 -0.984707
9
Time step 1274
C -0.917458 -0.040827 -0.281678
F -1.225553 0.117260 -1.589156
F -1.265212 1.096317 0.368068
F -1.668695 -1.112679 0.120671
S 0.872181 -0.124727 0.236204
O 0.672053 -0.328716 1.672171
O 1.813684 -0.934197 -0.484613
O 1.271978 1.352310 -0.079481
H 2.026972 1.122109 -0.981547
9
Time step 1275
C -0.915019 -0.041620 -0.281796
F -1.225993 0.117561 -1.588982
F -1.265982 1.096251 0.368135
F -1.670013 -1.112410 0.120784
S 0.872253 -0.125649 0.235786
O 0.672238 -0.328176 1.671857
O 1.813975 -0.932361 -0.483738
O 1.272858 1.351773 -0.079759
H 2.021778 1.122135 -0.978046
9
Time step 1276
C -0.912600 -0.042413 -0.281919
F -1.226428 0.117863 -1.588805
F -1.266755 1.096181 0.368200
F -1.671325 -1.112135 0.120898
S 0.872323 -0.126575 0.235376
O 0.672425 -0.327635 1.671540
O 1.814269 -0.930533 -0.482871
O 1.273760 1.351238 -0.080063
H 2.016318 1.122291 -0.974203
9
Time step 1277
C -0.910199 -0.043206 -0.282045
F -1.226859 0.118165 -1.588625
F -1.267530 1.096106 0.368263
F -1.672630 -1.111855 0.121012
S 0.872390 -0.127503 0.234976
O 0.672613 -0.327092 1.671219
O 1.814567 -0.928714 -0.482014
O 1.274681 1.350705 -0.080391
H 2.010596 1.122579 -0.970022
9
Time step 1278
C -0.907814 -0.043998 -0.282174
F -1.227285 0.118468 -1.588443
F -1.268310 1.096026 0.368324
F -1.673929 -1.111568 0.121127
S 0.872455 -0.128434 0.234584
O 0.672801 -0.326548 1.670895
O 1.814869 -0.926905 -0.481167
O 1.275622 1.350175 -0.080743
H 2.004617 1.122997 -0.965507
9
Time step 1279
C -0.905446 -0.044789 -0.282305
F -1.227706 0.118771 -1.588256
F -1.269093 1.095941 0.368382
F -1.675222 -1.111276 0.121241
S 0.872518 -0.129368 0.234201
O 0.672991 -0.326001 1.670566
O 1.815175 -0.925106 -0.480330
O 1.276583 1.349647 -0.081120
H 1.998386 1.123547 -0.960663
9
Time step 1280
C -0.903095 -0.045578 -0.282440
F -1.228124 0.119074 -1.588066
F -1.269879 1.095851 0.368438
F -1.676507 -1.110976 0.121354
S 0.872579 -0.130303 0.233829
O 0.673181 -0.325454 1.670234
O 1.815486 -0.923318 -0.479504
O 1.277562 1.349122 -0.081521
H 1.991910 1.124229 -0.955497
9
Time step 1281
C -0.900764 -0.046365 -0.282580
F -1.228535 0.119375 -1.587872
F -1.270668 1.095755 0.368492
F -1.677786 -1.110669 0.121467
S 0.872635 -0.131240 0.233467
O 0.673372 -0.324905 1.669899
O 1.815803 -0.921542 -0.478690
O 1.278560 1.348601 -0.081945
H 1.985196 1.125046 -0.950018
9
Time step 1282
C -0.898457 -0.047149 -0.282727
F -1.228941 0.119675 -1.587673
F -1.271459 1.095653 0.368545
F -1.679056 -1.110355 0.121580
S 0.872688 -0.132179 0.233115
O 0.673565 -0.324355 1.669558
O 1.816125 -0.919778 -0.477887
O 1.279576 1.348083 -0.082392
H 1.978254 1.125999 -0.944235
9
Time step 1283
C -0.896178 -0.047932 -0.282881
F -1.229339 0.119974 -1.587470
F -1.272250 1.095545 0.368595
F -1.680316 -1.110033 0.121694
S 0.872735 -0.133119 0.232775
O 0.673760 -0.323803 1.669214
O 1.816454 -0.918028 -0.477097
O 1.280609 1.347570 -0.082862
H 1.971091 1.127090 -0.938157
9
Time step 1284
C -0.893926 -0.048713 -0.283043
F -1.229731 0.120274 -1.587263
F -1.273042 1.095430 0.368644
F -1.681567 -1.109703 0.121808
S 0.872778 -0.134063 0.232447
O 0.673957 -0.323249 1.668864
O 1.816789 -0.916290 -0.476320
O 1.281658 1.347062 -0.083353
H 1.963718 1.128321 -0.931797
9
Time step 1285
C -0.891702 -0.049494 -0.283211
F -1.230116 0.120574 -1.587052
F -1.273833 1.095310 0.368689
F -1.682808 -1.109367 0.121923
S 0.872814 -0.135008 0.232132
O 0.674156 -0.322694 1.668510
O 1.817132 -0.914567 -0.475555
O 1.282722 1.346559 -0.083866
H 1.956145 1.129690 -0.925165
9
Time step 1286
C -0.889503 -0.050274 -0.283383
F -1.230495 0.120875 -1.586837
F -1.274624 1.095183 0.368732
F -1.684040 -1.109023 0.122037
S 0.872846 -0.135955 0.231830
O 0.674357 -0.322138 1.668152
O 1.817483 -0.912857 -0.474805
O 1.283801 1.346061 -0.084399
H 1.948381 1.131195 -0.918277
9
Time step 1287
C -0.887328 -0.051054 -0.283560
F -1.230870 0.121176 -1.586619
F -1.275417 1.095050 0.368770
F -1.685263 -1.108672 0.122152
S 0.872873 -0.136902 0.231541
O 0.674558 -0.321580 1.667788
O 1.817842 -0.911163 -0.474069
O 1.284894 1.345569 -0.084952
H 1.940440 1.132831 -0.911149
9
Time step 1288
C -0.885178 -0.051831 -0.283741
F -1.231240 0.121477 -1.586398
F -1.276210 1.094911 0.368806
F -1.686477 -1.108314 0.122267
S 0.872895 -0.137851 0.231267
O 0.674761 -0.321021 1.667420
O 1.818210 -0.909484 -0.473349
O 1.286000 1.345081 -0.085525
H 1.932336 1.134596 -0.903797
9
Time step 1289
C -0.883055 -0.052604 -0.283927
F -1.231603 0.121777 -1.586174
F -1.277004 1.094765 0.368840
F -1.687682 -1.107950 0.122382
S 0.872912 -0.138799 0.231007
O 0.674963 -0.320463 1.667047
O 1.818587 -0.907821 -0.472643
O 1.287119 1.344598 -0.086116
H 1.924085 1.136483 -0.896242
9
Time step 1290
C -0.880964 -0.053371 -0.284119
F -1.231960 0.122076 -1.585948
F -1.277797 1.094612 0.368872
F -1.688877 -1.107579 0.122497
S 0.872925 -0.139745 0.230760
O 0.675166 -0.319904 1.666669
O 1.818974 -0.906175 -0.471953
O 1.288249 1.344121 -0.086723
H 1.915707 1.138488 -0.888507
9
Time step 1291
C -0.878908 -0.054134 -0.284315
F -1.232308 0.122374 -1.585719
F -1.278590 1.094452 0.368903
F -1.690063 -1.107202 0.122613
S 0.872933 -0.140690 0.230527
O 0.675368 -0.319345 1.666285
O 1.819371 -0.904546 -0.471279
O 1.289389 1.343650 -0.087344
H 1.907228 1.140607 -0.880619
9
Time step 1292
C -0.876890 -0.054894 -0.284514
F -1.232647 0.122672 -1.585487
F -1.279380 1.094285 0.368932
F -1.691239 -1.106818 0.122729
S 0.872936 -0.141634 0.230307
O 0.675571 -0.318786 1.665897
O 1.819779 -0.902935 -0.470620
O 1.290536 1.343185 -0.087978
H 1.898673 1.142834 -0.872610
9
Time step 1293
C -0.874909 -0.055650 -0.284715
F -1.232979 0.122968 -1.585252
F -1.280170 1.094111 0.368957
F -1.692404 -1.106427 0.122845
S 0.872934 -0.142575 0.230100
O 0.675775 -0.318227 1.665504
O 1.820198 -0.901343 -0.469976
O 1.291688 1.342726 -0.088622
H 1.890074 1.145164 -0.864515
9
Time step 1294
C -0.872963 -0.056405 -0.284915
F -1.233303 0.123265 -1.585013
F -1.280958 1.093931 0.368980
F -1.693560 -1.106029 0.122960
S 0.872927 -0.143515 0.229906
O 0.675980 -0.317667 1.665108
O 1.820629 -0.899769 -0.469349
O 1.292843 1.342275 -0.089273
H 1.881464 1.147591 -0.856373
9
Time step 1295
C -0.871050 -0.057157 -0.285116
F -1.233620 0.123561 -1.584772
F -1.281745 1.093743 0.368998
F -1.694706 -1.105625 0.123073
S 0.872914 -0.144453 0.229726
O 0.676186 -0.317106 1.664707
O 1.821071 -0.898214 -0.468737
O 1.294000 1.341831 -0.089930
H 1.872879 1.150108 -0.848226
9
Time step 1296
C -0.869172 -0.057906 -0.285319
F -1.233931 0.123856 -1.584526
F -1.282531 1.093549 0.369014
F -1.695842 -1.105212 0.123185
S 0.872895 -0.145390 0.229558
O 0.676394 -0.316546 1.664304
O 1.821526 -0.896678 -0.468141
O 1.295154 1.341395 -0.090589
H 1.864356 1.152705 -0.840121
9
Time step 1297
C -0.867330 -0.058649 -0.285527
F -1.234235 0.124151 -1.584277
F -1.283317 1.093349 0.369026
F -1.696967 -1.104794 0.123296
S 0.872871 -0.146325 0.229405
O 0.676604 -0.315986 1.663898
O 1.821993 -0.895161 -0.467562
O 1.296305 1.340968 -0.091247
H 1.855934 1.155373 -0.832104
9
Time step 1298
C -0.865526 -0.059384 -0.285742
F -1.234531 0.124444 -1.584024
F -1.284100 1.093140 0.369036
F -1.698081 -1.104368 0.123408
S 0.872841 -0.147259 0.229265
O 0.676813 -0.315426 1.663490
O 1.822473 -0.893663 -0.467000
O 1.297449 1.340550 -0.091902
H 1.847651 1.158100 -0.824229
9
Time step 1299
C -0.863764 -0.060110 -0.285965
F -1.234818 0.124736 -1.583768
F -1.284881 1.092923 0.369043
F -1.699183 -1.103937 0.123521
S 0.872806 -0.148191 0.229139
O 0.677024 -0.314867 1.663080
O 1.822964 -0.892183 -0.466454
O 1.298585 1.340141 -0.092549
H 1.839548 1.160875 -0.816551
9
Time step 1300
C -0.862044 -0.060827 -0.286195
F -1.235097 0.125027 -1.583508
F -1.285658 1.092698 0.369049
F -1.700273 -1.103499 0.123635
S 0.872765 -0.149121 0.229027
O 0.677234 -0.314307 1.662668
O 1.823469 -0.890722 -0.465927
O 1.299708 1.339743 -0.093186
H 1.831667 1.163684 -0.809131
9
Time step 1301
C -0.860366 -0.061538 -0.286431
F -1.235368 0.125317 -1.583245
F -1.286433 1.092464 0.369051
F -1.701352 -1.103054 0.123749
S 0.872718 -0.150048 0.228929
O 0.677444 -0.313748 1.662255
O 1.823986 -0.889280 -0.465417
O 1.300817 1.339356 -0.093808
H 1.824054 1.166512 -0.802032
9
Time step 1302
C -0.858727 -0.062242 -0.286669
F -1.235631 0.125606 -1.582978
F -1.287204 1.092221 0.369050
F -1.702421 -1.102603 0.123861
S 0.872666 -0.150973 0.228846
O 0.677654 -0.313188 1.661839
O 1.824517 -0.887856 -0.464925
O 1.301909 1.338979 -0.094412
H 1.816755 1.169347 -0.795321
9
Time step 1303
C -0.857129 -0.062942 -0.286908
F -1.235888 0.125894 -1.582707
F -1.287973 1.091970 0.369045
F -1.703479 -1.102144 0.123972
S 0.872608 -0.151894 0.228779
O 0.677865 -0.312628 1.661420
O 1.825062 -0.886453 -0.464452
O 1.302981 1.338615 -0.094993
H 1.809819 1.172174 -0.789068
9
Time step 1304
C -0.855571 -0.063638 -0.287148
F -1.236137 0.126182 -1.582433
F -1.288739 1.091711 0.369035
F -1.704526 -1.101678 0.124080
S 0.872544 -0.152812 0.228727
O 0.678076 -0.312068 1.660999
O 1.825623 -0.885069 -0.463999
O 1.304029 1.338264 -0.095547
H 1.803297 1.174982 -0.783343
9
Time step 1305
C -0.854056 -0.064329 -0.287388
F -1.236379 0.126469 -1.582154
F -1.289502 1.091445 0.369022
F -1.705561 -1.101205 0.124186
S 0.872472 -0.153726 0.228692
O 0.678289 -0.311509 1.660574
O 1.826201 -0.883707 -0.463565
O 1.305050 1.337925 -0.096069
H 1.797239 1.177757 -0.778213
9
Time step 1306
C -0.852584 -0.065013 -0.287630
F -1.236613 0.126754 -1.581872
F -1.290262 1.091170 0.369005
F -1.706584 -1.100724 0.124290
S 0.872393 -0.154635 0.228673
O 0.678502 -0.310950 1.660146
O 1.826796 -0.882366 -0.463151
O 1.306042 1.337600 -0.096555
H 1.791691 1.180490 -0.773745
9
Time step 1307
C -0.851159 -0.065690 -0.287876
F -1.236838 0.127039 -1.581586
F -1.291020 1.090888 0.368985
F -1.707595 -1.100237 0.124394
S 0.872306 -0.155539 0.228670
O 0.678717 -0.310392 1.659714
O 1.827408 -0.881048 -0.462758
O 1.307002 1.337290 -0.097002
H 1.786696 1.183170 -0.769998
9
Time step 1308
C -0.849779 -0.066356 -0.288125
F -1.237055 0.127321 -1.581296
F -1.291776 1.090597 0.368961
F -1.708593 -1.099744 0.124497
S 0.872212 -0.156438 0.228683
O 0.678932 -0.309834 1.659279
O 1.828040 -0.879753 -0.462384
O 1.307927 1.336993 -0.097404
H 1.782290 1.185785 -0.767031
9
Time step 1309
C -0.848444 -0.067012 -0.288376
F -1.237264 0.127601 -1.581002
F -1.292529 1.090298 0.368933
F -1.709580 -1.099244 0.124600
S 0.872111 -0.157332 0.228711
O 0.679148 -0.309279 1.658840
O 1.828689 -0.878481 -0.462032
O 1.308816 1.336712 -0.097759
H 1.778506 1.188327 -0.764893
9
Time step 1310
C -0.847157 -0.067658 -0.288630
F -1.237465 0.127879 -1.580705
F -1.293279 1.089990 0.368902
F -1.710554 -1.098737 0.124702
S 0.872003 -0.158219 0.228755
O 0.679364 -0.308724 1.658399
O 1.829357 -0.877234 -0.461699
O 1.309666 1.336447 -0.098063
H 1.775366 1.190785 -0.763629
9
Time step 1311
C -0.845918 -0.068293 -0.288887
F -1.237659 0.128153 -1.580405
F -1.294026 1.089673 0.368868
F -1.711515 -1.098224 0.124802
S 0.871889 -0.159099 0.228814
O 0.679579 -0.308170 1.657954
O 1.830042 -0.876010 -0.461388
O 1.310478 1.336198 -0.098313
H 1.772891 1.193150 -0.763275
9
Time step 1312
C -0.844730 -0.068920 -0.289148
F -1.237844 0.128425 -1.580101
F -1.294769 1.089347 0.368832
F -1.712464 -1.097705 0.124902
S 0.871770 -0.159972 0.228888
O 0.679793 -0.307617 1.657507
O 1.830745 -0.874811 -0.461096
O 1.311250 1.335964 -0.098508
H 1.771093 1.195417 -0.763858
9
Time step 1313
C -0.843597 -0.069539 -0.289414
F -1.238020 0.128695 -1.579794
F -1.295507 1.089013 0.368793
F -1.713399 -1.097180 0.125001
S 0.871646 -0.160836 0.228977
O 0.680005 -0.307065 1.657056
O 1.831466 -0.873637 -0.460826
O 1.311982 1.335747 -0.098646
H 1.769980 1.197582 -0.765395
9
Time step 1314
C -0.842518 -0.070150 -0.289686
F -1.238186 0.128963 -1.579483
F -1.296240 1.088669 0.368752
F -1.714320 -1.096648 0.125100
S 0.871515 -0.161692 0.229080
O 0.680216 -0.306515 1.656604
O 1.832205 -0.872489 -0.460576
O 1.312672 1.335547 -0.098728
H 1.769553 1.199646 -0.767893
9
Time step 1315
C -0.841491 -0.070755 -0.289965
F -1.238342 0.129229 -1.579168
F -1.296968 1.088318 0.368709
F -1.715228 -1.096111 0.125198
S 0.871380 -0.162538 0.229199
O 0.680425 -0.305967 1.656150
O 1.832961 -0.871368 -0.460347
O 1.313322 1.335362 -0.098753
H 1.769809 1.201611 -0.771346
9
Time step 1316
C -0.840515 -0.071353 -0.290250
F -1.238490 0.129494 -1.578849
F -1.297694 1.087957 0.368664
F -1.716123 -1.095568 0.125297
S 0.871239 -0.163376 0.229332
O 0.680634 -0.305420 1.655695
O 1.833736 -0.870273 -0.460140
O 1.313929 1.335194 -0.098724
H 1.770736 1.203485 -0.775736
9
Time step 1317
C -0.839585 -0.071944 -0.290539
F -1.238628 0.129759 -1.578527
F -1.298417 1.087588 0.368615
F -1.717007 -1.095019 0.125396
S 0.871093 -0.164205 0.229480
O 0.680842 -0.304875 1.655239
O 1.834529 -0.869206 -0.459954
O 1.314497 1.335041 -0.098641
H 1.772313 1.205274 -0.781035
9
Time step 1318
C -0.838701 -0.072525 -0.290828
F -1.238759 0.130023 -1.578202
F -1.299137 1.087211 0.368563
F -1.717878 -1.094464 0.125493
S 0.870941 -0.165027 0.229642
O 0.681049 -0.304331 1.654783
O 1.835341 -0.868166 -0.459790
O 1.315024 1.334904 -0.098507
H 1.774515 1.206987 -0.787205
9
Time step 1319
C -0.837866 -0.073098 -0.291118
F -1.238881 0.130285 -1.577876
F -1.299853 1.086825 0.368506
F -1.718737 -1.093903 0.125590
S 0.870785 -0.165841 0.229819
O 0.681255 -0.303788 1.654329
O 1.836172 -0.867152 -0.459648
O 1.315513 1.334781 -0.098325
H 1.777305 1.208634 -0.794197
9
Time step 1320
C -0.837082 -0.073661 -0.291406
F -1.238995 0.130548 -1.577549
F -1.300565 1.086430 0.368446
F -1.719583 -1.093336 0.125686
S 0.870623 -0.166649 0.230009
O 0.681461 -0.303246 1.653875
O 1.837022 -0.866165 -0.459528
O 1.315967 1.334673 -0.098098
H 1.780643 1.210221 -0.801957
9
Time step 1321
C -0.836353 -0.074213 -0.291693
F -1.239099 0.130809 -1.577220
F -1.301272 1.086026 0.368382
F -1.720416 -1.092764 0.125781
S 0.870458 -0.167450 0.230213
O 0.681666 -0.302705 1.653423
O 1.837891 -0.865203 -0.459429
O 1.316388 1.334578 -0.097831
H 1.784480 1.211759 -0.810424
9
Time step 1322
C -0.835681 -0.074756 -0.291981
F -1.239194 0.131069 -1.576888
F -1.301972 1.085612 0.368314
F -1.721234 -1.092186 0.125875
S 0.870287 -0.168244 0.230431
O 0.681870 -0.302165 1.652973
O 1.838778 -0.864266 -0.459352
O 1.316779 1.334497 -0.097527
H 1.788767 1.213256 -0.819531
9
Time step 1323
C -0.835067 -0.075288 -0.292270
F -1.239278 0.131329 -1.576555
F -1.302667 1.085189 0.368243
F -1.722040 -1.091601 0.125968
S 0.870113 -0.169031 0.230662
O 0.682074 -0.301626 1.652526
O 1.839684 -0.863355 -0.459298
O 1.317143 1.334427 -0.097192
H 1.793451 1.214723 -0.829207
9
Time step 1324
C -0.834506 -0.075811 -0.292562
F -1.239352 0.131586 -1.576218
F -1.303356 1.084756 0.368168
F -1.722832 -1.091011 0.126058
S 0.869935 -0.169810 0.230908
O 0.682276 -0.301088 1.652081
O 1.840608 -0.862468 -0.459266
O 1.317484 1.334368 -0.096829
H 1.798482 1.216169 -0.839380
9
Time step 1325
C -0.833999 -0.076322 -0.292856
F -1.239417 0.131842 -1.575878
F -1.304040 1.084313 0.368089
F -1.723612 -1.090413 0.126148
S 0.869752 -0.170582 0.231167
O 0.682478 -0.300551 1.651640
O 1.841550 -0.861607 -0.459256
O 1.317804 1.334320 -0.096443
H 1.803809 1.217609 -0.849975
9
Time step 1326
C -0.833544 -0.076820 -0.293154
F -1.239472 0.132095 -1.575535
F -1.304718 1.083860 0.368006
F -1.724380 -1.089810 0.126235
S 0.869566 -0.171346 0.231440
O 0.682680 -0.300016 1.651202
O 1.842509 -0.860772 -0.459270
O 1.318107 1.334280 -0.096038
H 1.809385 1.219052 -0.860917
9
Time step 1327
C -0.833141 -0.077304 -0.293454
F -1.239519 0.132346 -1.575191
F -1.305391 1.083398 0.367920
F -1.725134 -1.089202 0.126322
S 0.869375 -0.172102 0.231727
O 0.682880 -0.299483 1.650766
O 1.843487 -0.859963 -0.459306
O 1.318394 1.334249 -0.095619
H 1.815165 1.220511 -0.872133
9
Time step 1328
C -0.832794 -0.077774 -0.293756
F -1.239557 0.132593 -1.574844
F -1.306056 1.082926 0.367831
F -1.725875 -1.088589 0.126407
S 0.869180 -0.172848 0.232028
O 0.683081 -0.298952 1.650334
O 1.844481 -0.859181 -0.459365
O 1.318669 1.334225 -0.095188
H 1.821105 1.221993 -0.883554
9
Time step 1329
C -0.832503 -0.078230 -0.294060
F -1.239587 0.132838 -1.574497
F -1.306715 1.082445 0.367737
F -1.726601 -1.087972 0.126491
S 0.868982 -0.173585 0.232342
O 0.683280 -0.298423 1.649905
O 1.845494 -0.858426 -0.459446
O 1.318933 1.334208 -0.094751
H 1.827166 1.223507 -0.895117
9
Time step 1330
C -0.832268 -0.078675 -0.294365
F -1.239608 0.133081 -1.574147
F -1.307368 1.081957 0.367640
F -1.727313 -1.087349 0.126574
S 0.868780 -0.174312 0.232668
O 0.683478 -0.297897 1.649478
O 1.846526 -0.857700 -0.459549
O 1.319189 1.334197 -0.094309
H 1.833308 1.225057 -0.906763
9
Time step 1331
C -0.832088 -0.079110 -0.294669
F -1.239620 0.133321 -1.573794
F -1.308015 1.081460 0.367538
F -1.728011 -1.086721 0.126655
S 0.868576 -0.175028 0.233006
O 0.683674 -0.297373 1.649055
O 1.847576 -0.857001 -0.459674
O 1.319439 1.334191 -0.093866
H 1.839494 1.226648 -0.918440
9
Time step 1332
C -0.831961 -0.079536 -0.294973
F -1.239623 0.133560 -1.573437
F -1.308658 1.080956 0.367432
F -1.728696 -1.086087 0.126734
S 0.868369 -0.175733 0.233355
O 0.683869 -0.296852 1.648635
O 1.848645 -0.856331 -0.459820
O 1.319685 1.334189 -0.093426
H 1.845689 1.228281 -0.930100
9
Time step 1333
C -0.831888 -0.079955 -0.295278
F -1.239616 0.133796 -1.573076
F -1.309297 1.080443 0.367323
F -1.729368 -1.085448 0.126810
S 0.868159 -0.176428 0.233714
O 0.684061 -0.296334 1.648219
O 1.849734 -0.855689 -0.459988
O 1.319929 1.334192 -0.092991
H 1.851859 1.229960 -0.941699
9
Time step 1334
C -0.831870 -0.080365 -0.295584
F -1.239599 0.134031 -1.572711
F -1.309930 1.079924 0.367211
F -1.730028 -1.084803 0.126884
S 0.867947 -0.177111 0.234084
O 0.684252 -0.295817 1.647807
O 1.850841 -0.855075 -0.460177
O 1.320172 1.334199 -0.092563
H 1.857975 1.231689 -0.953196
9
Time step 1335
C -0.831910 -0.080765 -0.295893
F -1.239571 0.134262 -1.572344
F -1.310558 1.079397 0.367097
F -1.730675 -1.084153 0.126958
S 0.867732 -0.177784 0.234463
O 0.684441 -0.295302 1.647401
O 1.851968 -0.854489 -0.460388
O 1.320415 1.334211 -0.092144
H 1.864010 1.233471 -0.964553
9
Time step 1336
C -0.832008 -0.081154 -0.296205
F -1.239533 0.134491 -1.571975
F -1.311178 1.078861 0.366981
F -1.731308 -1.083498 0.127030
S 0.867515 -0.178447 0.234852
O 0.684627 -0.294789 1.646999
O 1.853113 -0.853930 -0.460619
O 1.320662 1.334226 -0.091737
H 1.869943 1.235306 -0.975736
9
Time step 1337
C -0.832164 -0.081530 -0.296520
F -1.239484 0.134718 -1.571605
F -1.311791 1.078318 0.366863
F -1.731928 -1.082840 0.127103
S 0.867295 -0.179099 0.235249
O 0.684811 -0.294278 1.646604
O 1.854276 -0.853398 -0.460870
O 1.320912 1.334246 -0.091342
H 1.875754 1.237197 -0.986713
9
Time step 1338
C -0.832375 -0.081896 -0.296837
F -1.239426 0.134942 -1.571234
F -1.312399 1.077766 0.366742
F -1.732536 -1.082178 0.127175
S 0.867073 -0.179741 0.235656
O 0.684994 -0.293771 1.646216
O 1.855457 -0.852894 -0.461142
O 1.321167 1.334269 -0.090962
H 1.881430 1.239141 -0.997458
9
Time step 1339
C -0.832639 -0.082251 -0.297153
F -1.239361 0.135165 -1.570862
F -1.313001 1.077206 0.366617
F -1.733131 -1.081510 0.127246
S 0.866850 -0.180371 0.236070
O 0.685174 -0.293266 1.645834
O 1.856656 -0.852417 -0.461434
O 1.321428 1.334298 -0.090599
H 1.886957 1.241136 -1.007945
9
Time step 1340
C -0.832953 -0.082598 -0.297467
F -1.239287 0.135386 -1.570488
F -1.313598 1.076638 0.366488
F -1.733715 -1.080838 0.127315
S 0.866625 -0.180990 0.236493
O 0.685353 -0.292766 1.645461
O 1.857871 -0.851967 -0.461744
O 1.321696 1.334330 -0.090253
H 1.892324 1.243177 -1.018154
9
Time step 1341
C -0.833319 -0.082937 -0.297780
F -1.239205 0.135606 -1.570113
F -1.314191 1.076061 0.366355
F -1.734286 -1.080161 0.127384
S 0.866401 -0.181598 0.236922
O 0.685529 -0.292269 1.645096
O 1.859102 -0.851544 -0.462074
O 1.321970 1.334366 -0.089925
H 1.897521 1.245260 -1.028065
9
Time step 1342
C -0.833740 -0.083267 -0.298090
F -1.239115 0.135825 -1.569738
F -1.314779 1.075476 0.366218
F -1.734845 -1.079479 0.127451
S 0.866177 -0.182194 0.237357
O 0.685704 -0.291775 1.644739
O 1.860348 -0.851147 -0.462422
O 1.322251 1.334407 -0.089616
H 1.902538 1.247382 -1.037661
9
Time step 1343
C -0.834217 -0.083587 -0.298401
F -1.239015 0.136042 -1.569362
F -1.315361 1.074883 0.366077
F -1.735389 -1.078793 0.127518
S 0.865953 -0.182779 0.237798
O 0.685876 -0.291285 1.644392
O 1.861609 -0.850777 -0.462789
O 1.322539 1.334452 -0.089327
H 1.907365 1.249541 -1.046928
9
Time step 1344
C -0.834754 -0.083893 -0.298713
F -1.238905 0.136256 -1.568986
F -1.315936 1.074281 0.365935
F -1.735919 -1.078102 0.127585
S 0.865730 -0.183353 0.238245
O 0.686045 -0.290799 1.644056
O 1.862884 -0.850433 -0.463173
O 1.322834 1.334501 -0.089059
H 1.911996 1.251734 -1.055851
9
Time step 1345
C -0.835347 -0.084186 -0.299026
F -1.238786 0.136467 -1.568609
F -1.316504 1.073671 0.365790
F -1.736435 -1.077407 0.127651
S 0.865507 -0.183918 0.238696
O 0.686212 -0.290316 1.643729
O 1.864173 -0.850114 -0.463575
O 1.323136 1.334556 -0.088812
H 1.916420 1.253961 -1.064421
9
Time step 1346
C -0.835993 -0.084465 -0.299340
F -1.238658 0.136675 -1.568232
F -1.317066 1.073052 0.365644
F -1.736937 -1.076708 0.127715
S 0.865285 -0.184473 0.239152
O 0.686376 -0.289836 1.643414
O 1.865474 -0.849821 -0.463994
O 1.323446 1.334616 -0.088586
H 1.920631 1.256221 -1.072626
9
Time step 1347
C -0.836690 -0.084730 -0.299653
F -1.238521 0.136879 -1.567855
F -1.317623 1.072425 0.365495
F -1.737428 -1.076004 0.127779
S 0.865063 -0.185018 0.239612
O 0.686538 -0.289359 1.643109
O 1.866788 -0.849553 -0.464430
O 1.323765 1.334683 -0.088383
H 1.924623 1.258514 -1.080458
9
Time step 1348
C -0.837435 -0.084982 -0.299964
F -1.238376 0.137080 -1.567478
F -1.318174 1.071789 0.365343
F -1.737906 -1.075296 0.127841
S 0.864843 -0.185554 0.240075
O 0.686698 -0.288887 1.642817
O 1.868113 -0.849310 -0.464882
O 1.324093 1.334756 -0.088203
H 1.928390 1.260836 -1.087908
9
Time step 1349
C -0.838231 -0.085221 -0.300272
F -1.238222 0.137280 -1.567102
F -1.318721 1.071144 0.365187
F -1.738372 -1.074584 0.127902
S 0.864623 -0.186080 0.240542
O 0.686856 -0.288417 1.642536
O 1.869451 -0.849093 -0.465351
O 1.324430 1.334835 -0.088046
H 1.931927 1.263187 -1.094970
9
Time step 1350
C -0.839080 -0.085448 -0.300576
F -1.238058 0.137479 -1.566726
F -1.319261 1.070490 0.365027
F -1.738825 -1.073868 0.127963
S 0.864406 -0.186597 0.241012
O 0.687012 -0.287951 1.642268
O 1.870799 -0.848901 -0.465836
O 1.324775 1.334921 -0.087912
H 1.935230 1.265563 -1.101634
9
Time step 1351
C -0.839986 -0.085661 -0.300877
F -1.237885 0.137676 -1.566351
F -1.319795 1.069828 0.364863
F -1.739265 -1.073150 0.128024
S 0.864191 -0.187105 0.241485
O 0.687165 -0.287488 1.642011
O 1.872158 -0.848733 -0.466338
O 1.325130 1.335013 -0.087801
H 1.938294 1.267962 -1.107896
9
Time step 1352
C -0.840947 -0.085860 -0.301174
F -1.237703 0.137872 -1.565976
F -1.320321 1.069157 0.364695
F -1.739691 -1.072430 0.128084
S 0.863978 -0.187603 0.241960
O 0.687315 -0.287028 1.641767
O 1.873527 -0.848589 -0.466857
O 1.325493 1.335110 -0.087714
H 1.941116 1.270380 -1.113748
9
Time step 1353
C -0.841963 -0.086043 -0.301468
F -1.237512 0.138065 -1.565602
F -1.320840 1.068479 0.364523
F -1.740103 -1.071708 0.128142
S 0.863770 -0.188091 0.242439
O 0.687461 -0.286570 1.641536
O 1.874906 -0.848469 -0.467392
O 1.325864 1.335211 -0.087651
H 1.943692 1.272816 -1.119184
9
Time step 1354
C -0.843030 -0.086211 -0.301759
F -1.237313 0.138255 -1.565228
F -1.321353 1.067794 0.364348
F -1.740503 -1.070983 0.128198
S 0.863565 -0.188571 0.242920
O 0.687604 -0.286114 1.641318
O 1.876295 -0.848372 -0.467943
O 1.326245 1.335317 -0.087612
H 1.946020 1.275268 -1.124199
9
Time step 1355
C -0.844145 -0.086365 -0.302050
F -1.237106 0.138440 -1.564853
F -1.321861 1.067102 0.364171
F -1.740892 -1.070256 0.128252
S 0.863365 -0.189041 0.243403
O 0.687742 -0.285662 1.641113
O 1.877692 -0.848299 -0.468511
O 1.326634 1.335428 -0.087596
H 1.948096 1.277735 -1.128787
9
Time step 1356
C -0.845307 -0.086505 -0.302341
F -1.236892 0.138623 -1.564478
F -1.322364 1.066403 0.363992
F -1.741269 -1.069525 0.128305
S 0.863169 -0.189501 0.243888
O 0.687878 -0.285212 1.640921
O 1.879099 -0.848249 -0.469094
O 1.327032 1.335542 -0.087605
H 1.949919 1.280215 -1.132945
9
Time step 1357
C -0.846518 -0.086632 -0.302634
F -1.236669 0.138802 -1.564103
F -1.322863 1.065697 0.363812
F -1.741636 -1.068792 0.128356
S 0.862976 -0.189950 0.244374
O 0.688011 -0.284765 1.640744
O 1.880515 -0.848224 -0.469693
O 1.327439 1.335660 -0.087639
H 1.951486 1.282710 -1.136668
9
Time step 1358
C -0.847780 -0.086748 -0.302928
F -1.236436 0.138980 -1.563729
F -1.323355 1.064984 0.363630
F -1.741991 -1.068057 0.128408
S 0.862788 -0.190388 0.244862
O 0.688142 -0.284321 1.640580
O 1.881941 -0.848222 -0.470307
O 1.327854 1.335782 -0.087698
H 1.952794 1.285220 -1.139952
9
Time step 1359
C -0.849094 -0.086853 -0.303223
F -1.236193 0.139156 -1.563357
F -1.323842 1.064264 0.363447
F -1.742334 -1.067319 0.128459
S 0.862602 -0.190816 0.245350
O 0.688270 -0.283881 1.640432
O 1.883377 -0.848244 -0.470935
O 1.328279 1.335908 -0.087782
H 1.953843 1.287743 -1.142796
9
Time step 1360
C -0.850460 -0.086947 -0.303516
F -1.235942 0.139330 -1.562987
F -1.324321 1.063538 0.363262
F -1.742665 -1.066580 0.128510
S 0.862419 -0.191232 0.245838
O 0.688396 -0.283444 1.640300
O 1.884822 -0.848290 -0.471578
O 1.328712 1.336037 -0.087893
H 1.954631 1.290278 -1.145198
9
Time step 1361
C -0.851876 -0.087029 -0.303803
F -1.235681 0.139502 -1.562619
F -1.324794 1.062806 0.363075
F -1.742984 -1.065838 0.128558
S 0.862239 -0.191639 0.246325
O 0.688519 -0.283011 1.640185
O 1.886275 -0.848359 -0.472234
O 1.329155 1.336172 -0.088029
H 1.955157 1.292824 -1.147159
9
Time step 1362
C -0.853340 -0.087102 -0.304083
F -1.235413 0.139673 -1.562252
F -1.325261 1.062069 0.362884
F -1.743290 -1.065095 0.128604
S 0.862063 -0.192035 0.246811
O 0.688640 -0.282583 1.640087
O 1.887736 -0.848451 -0.472903
O 1.329607 1.336311 -0.088190
H 1.955422 1.295376 -1.148679
9
Time step 1363
C -0.854853 -0.087164 -0.304356
F -1.235136 0.139840 -1.561887
F -1.325723 1.061327 0.362691
F -1.743585 -1.064351 0.128647
S 0.861893 -0.192421 0.247294
O 0.688758 -0.282159 1.640006
O 1.889203 -0.848564 -0.473584
O 1.330068 1.336456 -0.088378
H 1.955428 1.297931 -1.149759
9
Time step 1364
C -0.856416 -0.087218 -0.304622
F -1.234851 0.140005 -1.561524
F -1.326178 1.060581 0.362496
F -1.743869 -1.063604 0.128688
S 0.861728 -0.192797 0.247774
O 0.688873 -0.281740 1.639943
O 1.890674 -0.848698 -0.474277
O 1.330538 1.336607 -0.088590
H 1.955176 1.300485 -1.150399
9
Time step 1365
C -0.858030 -0.087262 -0.304884
F -1.234556 0.140168 -1.561163
F -1.326628 1.059830 0.362299
F -1.744140 -1.062857 0.128728
S 0.861570 -0.193164 0.248250
O 0.688984 -0.281326 1.639897
O 1.892149 -0.848854 -0.474980
O 1.331017 1.336764 -0.088826
H 1.954670 1.303034 -1.150600
9
Time step 1366
C -0.859693 -0.087299 -0.305142
F -1.234252 0.140330 -1.560804
F -1.327073 1.059074 0.362100
F -1.744400 -1.062108 0.128769
S 0.861420 -0.193521 0.248722
O 0.689091 -0.280916 1.639868
O 1.893626 -0.849030 -0.475693
O 1.331504 1.336927 -0.089087
H 1.953911 1.305575 -1.150362
9
Time step 1367
C -0.861403 -0.087325 -0.305395
F -1.233939 0.140489 -1.560449
F -1.327512 1.058312 0.361899
F -1.744649 -1.061357 0.128810
S 0.861277 -0.193868 0.249189
O 0.689194 -0.280511 1.639856
O 1.895106 -0.849226 -0.476415
O 1.331999 1.337097 -0.089371
H 1.952901 1.308105 -1.149686
9
Time step 1368
C -0.863155 -0.087341 -0.305641
F -1.233619 0.140648 -1.560096
F -1.327945 1.057544 0.361696
F -1.744888 -1.060605 0.128850
S 0.861141 -0.194207 0.249652
O 0.689293 -0.280110 1.639860
O 1.896589 -0.849442 -0.477146
O 1.332502 1.337272 -0.089678
H 1.951639 1.310623 -1.148576
9
Time step 1369
C -0.864944 -0.087345 -0.305879
F -1.233294 0.140805 -1.559747
F -1.328375 1.056769 0.361489
F -1.745117 -1.059851 0.128890
S 0.861012 -0.194537 0.250108
O 0.689388 -0.279713 1.639882
O 1.898073 -0.849677 -0.477885
O 1.333013 1.337454 -0.090009
H 1.950127 1.313127 -1.147032
9
Time step 1370
C -0.866768 -0.087334 -0.306105
F -1.232964 0.140959 -1.559402
F -1.328799 1.055987 0.361279
F -1.745337 -1.059095 0.128928
S 0.860890 -0.194859 0.250559
O 0.689480 -0.279320 1.639922
O 1.899561 -0.849930 -0.478632
O 1.333531 1.337640 -0.090364
H 1.948364 1.315617 -1.145057
9
Time step 1371
C -0.868627 -0.087310 -0.306321
F -1.232628 0.141112 -1.559061
F -1.329219 1.055198 0.361066
F -1.745549 -1.058337 0.128964
S 0.860775 -0.195174 0.251004
O 0.689568 -0.278931 1.639982
O 1.901050 -0.850201 -0.479387
O 1.334056 1.337833 -0.090742
H 1.946348 1.318093 -1.142654
9
Time step 1372
C -0.870526 -0.087271 -0.306529
F -1.232286 0.141261 -1.558725
F -1.329633 1.054403 0.360851
F -1.745752 -1.057579 0.128998
S 0.860666 -0.195480 0.251443
O 0.689655 -0.278546 1.640062
O 1.902542 -0.850489 -0.480150
O 1.334590 1.338031 -0.091144
H 1.944080 1.320554 -1.139824
9
Time step 1373
C -0.872469 -0.087220 -0.306731
F -1.231936 0.141409 -1.558393
F -1.330040 1.053602 0.360635
F -1.745944 -1.056819 0.129033
S 0.860563 -0.195779 0.251875
O 0.689738 -0.278166 1.640163
O 1.904035 -0.850794 -0.480920
O 1.335132 1.338235 -0.091570
H 1.941562 1.323000 -1.136568
9
Time step 1374
C -0.874458 -0.087157 -0.306929
F -1.231577 0.141555 -1.558066
F -1.330441 1.052795 0.360417
F -1.746127 -1.056059 0.129068
S 0.860467 -0.196070 0.252300
O 0.689820 -0.277791 1.640285
O 1.905529 -0.851117 -0.481696
O 1.335681 1.338444 -0.092019
H 1.938794 1.325428 -1.132886
9
Time step 1375
C -0.876493 -0.087083 -0.307124
F -1.231210 0.141700 -1.557742
F -1.330836 1.051983 0.360198
F -1.746299 -1.055299 0.129103
S 0.860378 -0.196352 0.252717
O 0.689900 -0.277419 1.640428
O 1.907023 -0.851456 -0.482479
O 1.336239 1.338659 -0.092492
H 1.935779 1.327837 -1.128780
9
Time step 1376
C -0.878569 -0.086997 -0.307314
F -1.230835 0.141843 -1.557422
F -1.331225 1.051165 0.359977
F -1.746462 -1.054539 0.129138
S 0.860297 -0.196626 0.253126
O 0.689977 -0.277051 1.640592
O 1.908516 -0.851812 -0.483267
O 1.336804 1.338880 -0.092987
H 1.932521 1.330224 -1.124251
9
Time step 1377
C -0.880682 -0.086900 -0.307499
F -1.230453 0.141984 -1.557105
F -1.331610 1.050343 0.359755
F -1.746614 -1.053780 0.129172
S 0.860224 -0.196893 0.253526
O 0.690051 -0.276687 1.640776
O 1.910006 -0.852183 -0.484061
O 1.337377 1.339105 -0.093504
H 1.929024 1.332589 -1.119301
9
Time step 1378
C -0.882829 -0.086789 -0.307675
F -1.230066 0.142123 -1.556793
F -1.331991 1.049517 0.359532
F -1.746758 -1.053021 0.129205
S 0.860159 -0.197152 0.253918
O 0.690121 -0.276326 1.640981
O 1.911494 -0.852571 -0.484860
O 1.337957 1.339334 -0.094043
H 1.925292 1.334927 -1.113934
9
Time step 1379
C -0.885009 -0.086662 -0.307844
F -1.229672 0.142258 -1.556486
F -1.332368 1.048687 0.359308
F -1.746893 -1.052264 0.129237
S 0.860104 -0.197404 0.254301
O 0.690188 -0.275969 1.641205
O 1.912978 -0.852973 -0.485665
O 1.338543 1.339566 -0.094603
H 1.921328 1.337239 -1.108155
9
Time step 1380
C -0.887223 -0.086520 -0.308007
F -1.229273 0.142391 -1.556186
F -1.332741 1.047854 0.359085
F -1.747018 -1.051508 0.129269
S 0.860058 -0.197648 0.254676
O 0.690250 -0.275614 1.641449
O 1.914459 -0.853391 -0.486474
O 1.339135 1.339803 -0.095185
H 1.917137 1.339523 -1.101970
9
Time step 1381
C -0.889472 -0.086363 -0.308164
F -1.228867 0.142520 -1.555892
F -1.333110 1.047017 0.358863
F -1.747135 -1.050755 0.129301
S 0.860021 -0.197885 0.255042
O 0.690309 -0.275263 1.641714
O 1.915935 -0.853823 -0.487288
O 1.339733 1.340042 -0.095786
H 1.912722 1.341777 -1.095386
9
Time step 1382
C -0.891757 -0.086192 -0.308317
F -1.228454 0.142647 -1.555605
F -1.333475 1.046177 0.358641
F -1.747242 -1.050003 0.129334
S 0.859994 -0.198115 0.255398
O 0.690363 -0.274916 1.641999
O 1.917407 -0.854269 -0.488107
O 1.340337 1.340286 -0.096408
H 1.908088 1.343999 -1.088414
9
Time step 1383
C -0.894076 -0.086008 -0.308465
F -1.228034 0.142772 -1.555323
F -1.333836 1.045334 0.358419
F -1.747342 -1.049253 0.129368
S 0.859977 -0.198337 0.255746
O 0.690415 -0.274572 1.642305
O 1.918873 -0.854730 -0.488930
O 1.340947 1.340534 -0.097049
H 1.903239 1.346188 -1.081064
9
Time step 1384
C -0.896425 -0.085816 -0.308606
F -1.227609 0.142894 -1.555046
F -1.334194 1.044489 0.358196
F -1.747433 -1.048504 0.129400
S 0.859970 -0.198552 0.256085
O 0.690463 -0.274233 1.642632
O 1.920335 -0.855205 -0.489758
O 1.341561 1.340788 -0.097708
H 1.898179 1.348342 -1.073350
9
Time step 1385
C -0.898804 -0.085614 -0.308737
F -1.227179 0.143015 -1.554775
F -1.334549 1.043642 0.357971
F -1.747517 -1.047756 0.129431
S 0.859973 -0.198760 0.256415
O 0.690509 -0.273899 1.642980
O 1.921792 -0.855694 -0.490589
O 1.342180 1.341048 -0.098385
H 1.892916 1.350458 -1.065284
9
Time step 1386
C -0.901213 -0.085404 -0.308856
F -1.226742 0.143134 -1.554509
F -1.334901 1.042793 0.357744
F -1.747593 -1.047009 0.129461
S 0.859985 -0.198961 0.256735
O 0.690552 -0.273569 1.643347
O 1.923243 -0.856198 -0.491423
O 1.342802 1.341315 -0.099080
H 1.887455 1.352535 -1.056879
9
Time step 1387
C -0.903653 -0.085184 -0.308961
F -1.226299 0.143251 -1.554249
F -1.335248 1.041944 0.357516
F -1.747661 -1.046264 0.129489
S 0.860007 -0.199155 0.257044
O 0.690593 -0.273245 1.643734
O 1.924688 -0.856716 -0.492260
O 1.343427 1.341588 -0.099790
H 1.881806 1.354570 -1.048149
9
Time step 1388
C -0.906127 -0.084951 -0.309054
F -1.225849 0.143366 -1.553998
F -1.335591 1.041093 0.357288
F -1.747721 -1.045522 0.129517
S 0.860038 -0.199342 0.257343
O 0.690630 -0.272925 1.644141
O 1.926128 -0.857249 -0.493100
O 1.344053 1.341868 -0.100515
H 1.875979 1.356564 -1.039109
9
Time step 1389
C -0.908633 -0.084705 -0.309136
F -1.225391 0.143478 -1.553756
F -1.335929 1.040240 0.357060
F -1.747772 -1.044784 0.129546
S 0.860078 -0.199523 0.257632
O 0.690664 -0.272610 1.644567
O 1.927562 -0.857794 -0.493941
O 1.344681 1.342155 -0.101255
H 1.869987 1.358513 -1.029777
9
Time step 1390
C -0.911169 -0.084444 -0.309207
F -1.224927 0.143589 -1.553524
F -1.336262 1.039386 0.356832
F -1.747816 -1.044050 0.129576
S 0.860128 -0.199697 0.257910
O 0.690694 -0.272301 1.645013
O 1.928990 -0.858353 -0.494784
O 1.345310 1.342448 -0.102006
H 1.863843 1.360417 -1.020174
9
Time step 1391
C -0.913729 -0.084169 -0.309268
F -1.224458 0.143697 -1.553300
F -1.336591 1.038529 0.356605
F -1.747854 -1.043319 0.129608
S 0.860188 -0.199864 0.258177
O 0.690721 -0.271996 1.645478
O 1.930410 -0.858924 -0.495628
O 1.345939 1.342746 -0.102769
H 1.857564 1.362275 -1.010328
9
Time step 1392
C -0.916309 -0.083881 -0.309319
F -1.223985 0.143805 -1.553085
F -1.336919 1.037670 0.356376
F -1.747887 -1.042592 0.129641
S 0.860258 -0.200024 0.258433
O 0.690744 -0.271695 1.645963
O 1.931823 -0.859507 -0.496474
O 1.346568 1.343048 -0.103540
H 1.851169 1.364086 -1.000267
9
Time step 1393
C -0.918907 -0.083583 -0.309359
F -1.223509 0.143912 -1.552876
F -1.337244 1.036809 0.356147
F -1.747914 -1.041869 0.129673
S 0.860337 -0.200179 0.258680
O 0.690764 -0.271398 1.646468
O 1.933228 -0.860101 -0.497321
O 1.347194 1.343355 -0.104319
H 1.844676 1.365851 -0.990028
9
Time step 1394
C -0.921523 -0.083276 -0.309387
F -1.223029 0.144019 -1.552675
F -1.337567 1.035946 0.355916
F -1.747935 -1.041148 0.129704
S 0.860427 -0.200327 0.258915
O 0.690782 -0.271104 1.646994
O 1.934625 -0.860707 -0.498168
O 1.347816 1.343666 -0.105103
H 1.838109 1.367572 -0.979648
9
Time step 1395
C -0.924160 -0.082961 -0.309404
F -1.222545 0.144125 -1.552480
F -1.337887 1.035084 0.355685
F -1.747951 -1.040431 0.129734
S 0.860527 -0.200470 0.259138
O 0.690798 -0.270813 1.647540
O 1.936013 -0.861322 -0.499015
O 1.348432 1.343982 -0.105889
H 1.831489 1.369248 -0.969169
9
Time step 1396
C -0.926821 -0.082638 -0.309410
F -1.222055 0.144231 -1.552292
F -1.338204 1.034221 0.355454
F -1.747961 -1.039718 0.129762
S 0.860637 -0.200608 0.259350
O 0.690812 -0.270526 1.648107
O 1.937392 -0.861948 -0.499861
O 1.349040 1.344301 -0.106675
H 1.824843 1.370883 -0.958636
9
Time step 1397
C -0.929507 -0.082305 -0.309407
F -1.221559 0.144336 -1.552112
F -1.338517 1.033359 0.355224
F -1.747965 -1.039009 0.129791
S 0.860758 -0.200739 0.259549
O 0.690824 -0.270242 1.648695
O 1.938761 -0.862585 -0.500706
O 1.349639 1.344624 -0.107457
H 1.818199 1.372477 -0.948097
9
Time step 1398
C -0.932214 -0.081962 -0.309393
F -1.221057 0.144440 -1.551941
F -1.338827 1.032496 0.354996
F -1.747965 -1.038305 0.129819
S 0.860889 -0.200865 0.259736
O 0.690835 -0.269961 1.649302
O 1.940119 -0.863231 -0.501549
O 1.350227 1.344950 -0.108232
H 1.811587 1.374031 -0.937604
9
Time step 1399
C -0.934940 -0.081607 -0.309368
F -1.220549 0.144543 -1.551779
F -1.339134 1.031634 0.354769
F -1.747960 -1.037606 0.129848
S 0.861030 -0.200985 0.259909
O 0.690843 -0.269684 1.649930
O 1.941467 -0.863886 -0.502390
O 1.350802 1.345280 -0.108996
H 1.805043 1.375545 -0.927216
9
Time step 1400
C -0.937680 -0.081241 -0.309332
F -1.220037 0.144644 -1.551627
F -1.339439 1.030770 0.354543
F -1.747954 -1.036913 0.129878
S 0.861182 -0.201099 0.260071
O 0.690850 -0.269410 1.650576
O 1.942805 -0.864550 -0.503229
O 1.351362 1.345612 -0.109744
H 1.798602 1.377021 -0.916995
9
Time step 1401
C -0.940433 -0.080863 -0.309284
F -1.219522 0.144743 -1.551486
F -1.339741 1.029906 0.354318
F -1.747944 -1.036226 0.129908
S 0.861343 -0.201208 0.260219
O 0.690855 -0.269139 1.651241
O 1.944131 -0.865222 -0.504066
O 1.351907 1.345948 -0.110472
H 1.792304 1.378461 -0.907010
9
Time step 1402
C -0.943200 -0.080473 -0.309224
F -1.219004 0.144841 -1.551356
F -1.340041 1.029042 0.354095
F -1.747932 -1.035544 0.129940
S 0.861515 -0.201311 0.260355
O 0.690858 -0.268872 1.651925
O 1.945445 -0.865902 -0.504900
O 1.352432 1.346285 -0.111175
H 1.786191 1.379866 -0.897338
9
Time step 1403
C -0.945982 -0.080073 -0.309153
F -1.218482 0.144938 -1.551237
F -1.340338 1.028178 0.353874
F -1.747915 -1.034867 0.129973
S 0.861697 -0.201409 0.260479
O 0.690859 -0.268607 1.652627
O 1.946748 -0.866589 -0.505732
O 1.352936 1.346625 -0.111848
H 1.780305 1.381241 -0.888056
9
Time step 1404
C -0.948780 -0.079661 -0.309073
F -1.217956 0.145033 -1.551129
F -1.340632 1.027314 0.353654
F -1.747895 -1.034196 0.130008
S 0.861890 -0.201502 0.260590
O 0.690857 -0.268346 1.653349
O 1.948039 -0.867284 -0.506560
O 1.353414 1.346967 -0.112486
H 1.774688 1.382592 -0.879247
9
Time step 1405
C -0.951595 -0.079237 -0.308983
F -1.217426 0.145126 -1.551032
F -1.340924 1.026451 0.353437
F -1.747869 -1.033530 0.130044
S 0.862094 -0.201592 0.260688
O 0.690853 -0.268089 1.654088
O 1.949318 -0.867985 -0.507386
O 1.353864 1.347312 -0.113085
H 1.769382 1.383923 -0.870991
9
Time step 1406
C -0.954423 -0.078803 -0.308885
F -1.216893 0.145218 -1.550946
F -1.341213 1.025589 0.353221
F -1.747840 -1.032869 0.130083
S 0.862310 -0.201678 0.260774
O 0.690847 -0.267835 1.654847
O 1.950584 -0.868693 -0.508207
O 1.354284 1.347658 -0.113638
H 1.764428 1.385239 -0.863370
9
Time step 1407
C -0.957260 -0.078357 -0.308776
F -1.216358 0.145308 -1.550871
F -1.341502 1.024730 0.353006
F -1.747809 -1.032214 0.130122
S 0.862537 -0.201759 0.260847
O 0.690839 -0.267585 1.655624
O 1.951838 -0.869408 -0.509026
O 1.354670 1.348005 -0.114140
H 1.759864 1.386546 -0.856461
9
Time step 1408
C -0.960102 -0.077901 -0.308656
F -1.215821 0.145396 -1.550807
F -1.341790 1.023874 0.352793
F -1.747777 -1.031566 0.130162
S 0.862776 -0.201837 0.260908
O 0.690829 -0.267339 1.656418
O 1.953079 -0.870129 -0.509840
O 1.355020 1.348353 -0.114589
H 1.755730 1.387847 -0.850336
9
Time step 1409
C -0.962948 -0.077434 -0.308523
F -1.215282 0.145482 -1.550755
F -1.342078 1.023023 0.352582
F -1.747744 -1.030926 0.130203
S 0.863026 -0.201909 0.260956
O 0.690817 -0.267098 1.657230
O 1.954307 -0.870856 -0.510651
O 1.355333 1.348701 -0.114979
H 1.752063 1.389145 -0.845064
9
Time step 1410
C -0.965800 -0.076959 -0.308376
F -1.214739 0.145567 -1.550714
F -1.342366 1.022176 0.352372
F -1.747711 -1.030295 0.130246
S 0.863288 -0.201977 0.260993
O 0.690804 -0.266861 1.658059
O 1.955522 -0.871589 -0.511459
O 1.355606 1.349048 -0.115306
H 1.748896 1.390442 -0.840707
9
Time step 1411
C -0.968659 -0.076475 -0.308217
F -1.214192 0.145651 -1.550685
F -1.342654 1.021336 0.352165
F -1.747677 -1.029672 0.130289
S 0.863561 -0.202041 0.261017
O 0.690789 -0.266628 1.658903
O 1.956724 -0.872328 -0.512262
O 1.355837 1.349395 -0.115568
H 1.746262 1.391742 -0.837320
9
Time step 1412
C -0.971528 -0.075981 -0.308046
F -1.213639 0.145734 -1.550667
F -1.342942 1.020501 0.351961
F -1.747642 -1.029058 0.130334
S 0.863844 -0.202100 0.261029
O 0.690772 -0.266398 1.659762
O 1.957912 -0.873071 -0.513062
O 1.356024 1.349740 -0.115762
H 1.744188 1.393046 -0.834949
9
Time step 1413
C -0.974404 -0.075478 -0.307865
F -1.213080 0.145815 -1.550660
F -1.343229 1.019671 0.351762
F -1.747605 -1.028453 0.130381
S 0.864139 -0.202155 0.261029
O 0.690753 -0.266173 1.660634
O 1.959087 -0.873821 -0.513857
O 1.356166 1.350085 -0.115885
H 1.742694 1.394359 -0.833631
9
Time step 1414
C -0.977286 -0.074965 -0.307675
F -1.212517 0.145894 -1.550663
F -1.343518 1.018848 0.351565
F -1.747567 -1.027857 0.130429
S 0.864444 -0.202207 0.261019
O 0.690733 -0.265951 1.661519
O 1.960248 -0.874575 -0.514648
O 1.356262 1.350428 -0.115937
H 1.741795 1.395682 -0.833391
9
Time step 1415
C -0.980170 -0.074442 -0.307478
F -1.211951 0.145973 -1.550676
F -1.343806 1.018029 0.351373
F -1.747528 -1.027269 0.130478
S 0.864760 -0.202255 0.260997
O 0.690710 -0.265733 1.662418
O 1.961395 -0.875336 -0.515433
O 1.356311 1.350770 -0.115917
H 1.741495 1.397019 -0.834239
9
Time step 1416
C -0.983053 -0.073907 -0.307273
F -1.211384 0.146051 -1.550700
F -1.344095 1.017216 0.351184
F -1.747488 -1.026692 0.130530
S 0.865088 -0.202300 0.260965
O 0.690687 -0.265518 1.663328
O 1.962527 -0.876101 -0.516213
O 1.356315 1.351112 -0.115824
H 1.741789 1.398370 -0.836168
9
Time step 1417
C -0.985933 -0.073363 -0.307060
F -1.210817 0.146129 -1.550735
F -1.344385 1.016408 0.350998
F -1.747448 -1.026124 0.130583
S 0.865426 -0.202341 0.260923
O 0.690662 -0.265306 1.664252
O 1.963645 -0.876873 -0.516986
O 1.356273 1.351452 -0.115661
H 1.742662 1.399734 -0.839159
9
Time step 1418
C -0.988811 -0.072808 -0.306838
F -1.210248 0.146206 -1.550783
F -1.344674 1.015605 0.350815
F -1.747408 -1.025567 0.130637
S 0.865775 -0.202378 0.260870
O 0.690637 -0.265098 1.665187
O 1.964748 -0.877650 -0.517753
O 1.356189 1.351792 -0.115429
H 1.744092 1.401108 -0.843175
9
Time step 1419
C -0.991688 -0.072244 -0.306605
F -1.209679 0.146284 -1.550843
F -1.344962 1.014807 0.350636
F -1.747368 -1.025020 0.130693
S 0.866134 -0.202411 0.260806
O 0.690611 -0.264893 1.666135
O 1.965836 -0.878432 -0.518512
O 1.356063 1.352131 -0.115130
H 1.746049 1.402489 -0.848168
9
Time step 1420
C -0.994565 -0.071671 -0.306360
F -1.209107 0.146362 -1.550918
F -1.345251 1.014015 0.350460
F -1.747328 -1.024484 0.130751
S 0.866503 -0.202441 0.260730
O 0.690586 -0.264690 1.667096
O 1.966908 -0.879218 -0.519265
O 1.355898 1.352470 -0.114770
H 1.748499 1.403872 -0.854080
9
Time step 1421
C -0.997438 -0.071089 -0.306102
F -1.208532 0.146440 -1.551006
F -1.345541 1.013228 0.350289
F -1.747289 -1.023958 0.130811
S 0.866882 -0.202468 0.260641
O 0.690560 -0.264491 1.668069
O 1.967966 -0.880009 -0.520010
O 1.355697 1.352808 -0.114351
H 1.751404 1.405253 -0.860846
9
Time step 1422
C -1.000307 -0.070499 -0.305830
F -1.207955 0.146518 -1.551107
F -1.345832 1.012447 0.350121
F -1.747252 -1.023442 0.130871
S 0.867270 -0.202492 0.260541
O 0.690536 -0.264294 1.669054
O 1.969008 -0.880804 -0.520747
O 1.355462 1.353147 -0.113879
H 1.754724 1.406628 -0.868396
9
Time step 1423
C -1.003168 -0.069899 -0.305546
F -1.207376 0.146595 -1.551220
F -1.346126 1.011671 0.349957
F -1.747216 -1.022935 0.130934
S 0.867668 -0.202514 0.260428
O 0.690511 -0.264101 1.670050
O 1.970035 -0.881602 -0.521476
O 1.355196 1.353487 -0.113357
H 1.758418 1.407994 -0.876657
9
Time step 1424
C -1.006020 -0.069289 -0.305252
F -1.206795 0.146671 -1.551346
F -1.346421 1.010902 0.349797
F -1.747183 -1.022440 0.130998
S 0.868076 -0.202533 0.260303
O 0.690487 -0.263910 1.671058
O 1.971045 -0.882402 -0.522197
O 1.354902 1.353827 -0.112791
H 1.762447 1.409348 -0.885553
9
Time step 1425
C -1.008864 -0.068669 -0.304948
F -1.206212 0.146747 -1.551485
F -1.346718 1.010140 0.349640
F -1.747152 -1.021957 0.131066
S 0.868494 -0.202551 0.260167
O 0.690462 -0.263722 1.672075
O 1.972039 -0.883205 -0.522911
O 1.354583 1.354169 -0.112185
H 1.766769 1.410686 -0.895008
9
Time step 1426
C -1.011700 -0.068037 -0.304636
F -1.205627 0.146822 -1.551638
F -1.347015 1.009386 0.349489
F -1.747124 -1.021487 0.131137
S 0.868921 -0.202567 0.260020
O 0.690437 -0.263537 1.673102
O 1.973017 -0.884010 -0.523617
O 1.354240 1.354513 -0.111544
H 1.771347 1.412004 -0.904944
9
Time step 1427
C -1.014528 -0.067395 -0.304316
F -1.205040 0.146897 -1.551804
F -1.347313 1.008639 0.349341
F -1.747099 -1.021031 0.131212
S 0.869358 -0.202580 0.259863
O 0.690412 -0.263356 1.674139
O 1.973978 -0.884818 -0.524315
O 1.353877 1.354859 -0.110872
H 1.776141 1.413298 -0.915285
9
Time step 1428
C -1.017346 -0.066744 -0.303990
F -1.204450 0.146971 -1.551983
F -1.347611 1.007903 0.349200
F -1.747078 -1.020590 0.131292
S 0.869804 -0.202592 0.259695
O 0.690387 -0.263177 1.675184
O 1.974923 -0.885627 -0.525006
O 1.353496 1.355206 -0.110176
H 1.781112 1.414563 -0.925953
9
Time step 1429
C -1.020152 -0.066084 -0.303658
F -1.203859 0.147045 -1.552177
F -1.347911 1.007176 0.349063
F -1.747062 -1.020162 0.131375
S 0.870261 -0.202601 0.259517
O 0.690362 -0.263002 1.676238
O 1.975851 -0.886438 -0.525691
O 1.353098 1.355556 -0.109459
H 1.786223 1.415793 -0.936874
9
Time step 1430
C -1.022941 -0.065417 -0.303319
F -1.203267 0.147117 -1.552383
F -1.348214 1.006460 0.348932
F -1.747052 -1.019748 0.131462
S 0.870729 -0.202607 0.259330
O 0.690336 -0.262831 1.677300
O 1.976761 -0.887252 -0.526368
O 1.352686 1.355908 -0.108726
H 1.791437 1.416983 -0.947976
9
Time step 1431
C -1.025710 -0.064744 -0.302976
F -1.202675 0.147188 -1.552603
F -1.348521 1.005755 0.348807
F -1.747047 -1.019346 0.131552
S 0.871208 -0.202610 0.259133
O 0.690310 -0.262664 1.678371
O 1.977654 -0.888067 -0.527037
O 1.352263 1.356262 -0.107981
H 1.796719 1.418130 -0.959191
9
Time step 1432
C -1.028459 -0.064064 -0.302629
F -1.202083 0.147256 -1.552835
F -1.348832 1.005060 0.348688
F -1.747048 -1.018956 0.131645
S 0.871698 -0.202610 0.258926
O 0.690283 -0.262501 1.679450
O 1.978530 -0.888885 -0.527700
O 1.351829 1.356619 -0.107228
H 1.802036 1.419229 -0.970456
9
Time step 1433
C -1.031190 -0.063379 -0.302280
F -1.201492 0.147323 -1.553080
F -1.349147 1.004378 0.348576
F -1.747054 -1.018579 0.131743
S 0.872199 -0.202608 0.258709
O 0.690257 -0.262343 1.680536
O 1.979389 -0.889705 -0.528355
O 1.351387 1.356978 -0.106470
H 1.807359 1.420276 -0.981715
9
Time step 1434
C -1.033903 -0.062689 -0.301928
F -1.200899 0.147388 -1.553339
F -1.349465 1.003706 0.348470
F -1.747064 -1.018214 0.131844
S 0.872710 -0.202602 0.258483
O 0.690231 -0.262188 1.681630
O 1.980231 -0.890528 -0.529003
O 1.350938 1.357340 -0.105710
H 1.812661 1.421269 -0.992917
9
Time step 1435
C -1.036604 -0.061993 -0.301574
F -1.200306 0.147452 -1.553610
F -1.349786 1.003047 0.348372
F -1.747079 -1.017862 0.131949
S 0.873231 -0.202593 0.258246
O 0.690206 -0.262036 1.682730
O 1.981056 -0.891353 -0.529643
O 1.350484 1.357706 -0.104949
H 1.817918 1.422203 -1.004019
9
Time step 1436
C -1.039290 -0.061292 -0.301215
F -1.199710 0.147514 -1.553894
F -1.350109 1.002401 0.348281
F -1.747097 -1.017524 0.132057
S 0.873761 -0.202582 0.257999
O 0.690183 -0.261886 1.683836
O 1.981865 -0.892182 -0.530275
O 1.350026 1.358074 -0.104191
H 1.823108 1.423075 -1.014982
9
Time step 1437
C -1.041961 -0.060587 -0.300851
F -1.199114 0.147577 -1.554192
F -1.350435 1.001767 0.348196
F -1.747120 -1.017202 0.132168
S 0.874300 -0.202569 0.257743
O 0.690160 -0.261737 1.684948
O 1.982658 -0.893013 -0.530899
O 1.349565 1.358445 -0.103437
H 1.828211 1.423880 -1.025771
9
Time step 1438
C -1.044613 -0.059878 -0.300482
F -1.198516 0.147639 -1.554502
F -1.350764 1.001147 0.348118
F -1.747149 -1.016894 0.132281
S 0.874848 -0.202553 0.257477
O 0.690140 -0.261589 1.686065
O 1.983435 -0.893847 -0.531516
O 1.349103 1.358819 -0.102689
H 1.833210 1.424617 -1.036355
9
Time step 1439
C -1.047241 -0.059166 -0.300106
F -1.197919 0.147701 -1.554824
F -1.351098 1.000542 0.348047
F -1.747185 -1.016603 0.132396
S 0.875405 -0.202536 0.257202
O 0.690122 -0.261441 1.687185
O 1.984197 -0.894684 -0.532125
O 1.348641 1.359195 -0.101950
H 1.838087 1.425283 -1.046703
9
Time step 1440
C -1.049845 -0.058449 -0.299727
F -1.197321 0.147763 -1.555158
F -1.351436 0.999950 0.347983
F -1.747228 -1.016326 0.132514
S 0.875972 -0.202516 0.256917
O 0.690105 -0.261294 1.688310
O 1.984942 -0.895524 -0.532726
O 1.348178 1.359575 -0.101221
H 1.842827 1.425879 -1.056787
9
Time step 1441
C -1.052424 -0.057728 -0.299347
F -1.196724 0.147824 -1.555504
F -1.351779 0.999372 0.347927
F -1.747279 -1.016065 0.132635
S 0.876548 -0.202494 0.256624
O 0.690090 -0.261149 1.689438
O 1.985669 -0.896365 -0.533318
O 1.347717 1.359957 -0.100504
H 1.847415 1.426404 -1.066579
9
Time step 1442
C -1.054979 -0.057003 -0.298967
F -1.196127 0.147885 -1.555863
F -1.352126 0.998807 0.347878
F -1.747337 -1.015819 0.132761
S 0.877135 -0.202471 0.256322
O 0.690076 -0.261005 1.690569
O 1.986379 -0.897209 -0.533902
O 1.347258 1.360343 -0.099801
H 1.851839 1.426858 -1.076057
9
Time step 1443
C -1.057512 -0.056275 -0.298587
F -1.195528 0.147946 -1.556235
F -1.352477 0.998255 0.347837
F -1.747402 -1.015588 0.132891
S 0.877732 -0.202445 0.256011
O 0.690063 -0.260862 1.691703
O 1.987071 -0.898054 -0.534476
O 1.346802 1.360734 -0.099113
H 1.856089 1.427240 -1.085199
9
Time step 1444
C -1.060022 -0.055543 -0.298207
F -1.194929 0.148007 -1.556619
F -1.352832 0.997717 0.347804
F -1.747474 -1.015373 0.133026
S 0.878339 -0.202418 0.255692
O 0.690051 -0.260722 1.692840
O 1.987743 -0.898901 -0.535041
O 1.346349 1.361129 -0.098442
H 1.860157 1.427547 -1.093990
9
Time step 1445
C -1.062507 -0.054810 -0.297826
F -1.194328 0.148069 -1.557017
F -1.353191 0.997194 0.347779
F -1.747553 -1.015174 0.133165
S 0.878956 -0.202389 0.255364
O 0.690041 -0.260585 1.693978
O 1.988397 -0.899749 -0.535597
O 1.345900 1.361529 -0.097788
H 1.864036 1.427777 -1.102416
9
Time step 1446
C -1.064966 -0.054075 -0.297443
F -1.193728 0.148132 -1.557427
F -1.353554 0.996686 0.347762
F -1.747640 -1.014993 0.133308
S 0.879583 -0.202360 0.255029
O 0.690032 -0.260449 1.695116
O 1.989031 -0.900598 -0.536142
O 1.345456 1.361936 -0.097154
H 1.867721 1.427928 -1.110469
9
Time step 1447
C -1.067395 -0.053338 -0.297058
F -1.193130 0.148196 -1.557850
F -1.353923 0.996194 0.347752
F -1.747736 -1.014829 0.133455
S 0.880220 -0.202329 0.254688
O 0.690025 -0.260316 1.696255
O 1.989646 -0.901447 -0.536677
O 1.345018 1.362347 -0.096540
H 1.871207 1.427998 -1.118138
9
Time step 1448
C -1.069794 -0.052598 -0.296672
F -1.192532 0.148260 -1.558287
F -1.354298 0.995719 0.347750
F -1.747841 -1.014683 0.133605
S 0.880867 -0.202298 0.254340
O 0.690020 -0.260186 1.697392
O 1.990243 -0.902297 -0.537202
O 1.344586 1.362765 -0.095946
H 1.874490 1.427987 -1.125415
9
Time step 1449
C -1.072163 -0.051854 -0.296286
F -1.191935 0.148324 -1.558736
F -1.354678 0.995261 0.347757
F -1.747954 -1.014555 0.133760
S 0.881522 -0.202266 0.253986
O 0.690018 -0.260059 1.698528
O 1.990822 -0.903146 -0.537717
O 1.344160 1.363188 -0.095374
H 1.877567 1.427898 -1.132294
9
Time step 1450
C -1.074503 -0.051106 -0.295904
F -1.191339 0.148387 -1.559198
F -1.355064 0.994819 0.347773
F -1.748075 -1.014445 0.133919
S 0.882186 -0.202234 0.253627
O 0.690018 -0.259936 1.699662
O 1.991383 -0.903996 -0.538222
O 1.343741 1.363616 -0.094823
H 1.880437 1.427731 -1.138765
9
Time step 1451
C -1.076818 -0.050353 -0.295525
F -1.190741 0.148449 -1.559673
F -1.355456 0.994393 0.347799
F -1.748204 -1.014351 0.134085
S 0.882858 -0.202200 0.253262
O 0.690020 -0.259817 1.700794
O 1.991926 -0.904845 -0.538718
O 1.343330 1.364050 -0.094295
H 1.883097 1.427491 -1.144823
9
Time step 1452
C -1.079107 -0.049598 -0.295151
F -1.190143 0.148510 -1.560160
F -1.355852 0.993984 0.347834
F -1.748341 -1.014274 0.134255
S 0.883537 -0.202165 0.252891
O 0.690025 -0.259703 1.701922
O 1.992452 -0.905694 -0.539203
O 1.342925 1.364489 -0.093789
H 1.885547 1.427179 -1.150461
9
Time step 1453
C -1.081368 -0.048840 -0.294780
F -1.189544 0.148570 -1.560660
F -1.356253 0.993591 0.347878
F -1.748485 -1.014213 0.134432
S 0.884224 -0.202129 0.252515
O 0.690033 -0.259592 1.703048
O 1.992961 -0.906542 -0.539679
O 1.342528 1.364934 -0.093306
H 1.887784 1.426796 -1.155675
9
Time step 1454
C -1.083598 -0.048081 -0.294413
F -1.188945 0.148629 -1.561171
F -1.356659 0.993216 0.347931
F -1.748638 -1.014170 0.134613
S 0.884918 -0.202091 0.252134
O 0.690044 -0.259485 1.704171
O 1.993452 -0.907390 -0.540145
O 1.342138 1.365383 -0.092846
H 1.889810 1.426342 -1.160459
9
Time step 1455
C -1.085792 -0.047322 -0.294050
F -1.188349 0.148688 -1.561693
F -1.357071 0.992860 0.347993
F -1.748801 -1.014144 0.134798
S 0.885620 -0.202054 0.251748
O 0.690057 -0.259380 1.705291
O 1.993925 -0.908237 -0.540602
O 1.341756 1.365837 -0.092408
H 1.891621 1.425818 -1.164812
9
Time step 1456
C -1.087948 -0.046562 -0.293692
F -1.187756 0.148745 -1.562227
F -1.357490 0.992523 0.348065
F -1.748974 -1.014138 0.134987
S 0.886329 -0.202015 0.251357
O 0.690072 -0.259278 1.706406
O 1.994381 -0.909083 -0.541049
O 1.341381 1.366296 -0.091993
H 1.893217 1.425225 -1.168728
9
Time step 1457
C -1.090065 -0.045801 -0.293340
F -1.187166 0.148801 -1.562772
F -1.357915 0.992206 0.348148
F -1.749158 -1.014150 0.135181
S 0.887047 -0.201976 0.250961
O 0.690089 -0.259178 1.707517
O 1.994819 -0.909929 -0.541487
O 1.341015 1.366758 -0.091600
H 1.894595 1.424563 -1.172206
9
Time step 1458
C -1.092142 -0.045040 -0.292998
F -1.186579 0.148856 -1.563328
F -1.358347 0.991911 0.348242
F -1.749352 -1.014181 0.135379
S 0.887773 -0.201937 0.250561
O 0.690108 -0.259079 1.708623
O 1.995240 -0.910775 -0.541916
O 1.340656 1.367225 -0.091229
H 1.895753 1.423832 -1.175241
9
Time step 1459
C -1.094182 -0.044279 -0.292666
F -1.185993 0.148908 -1.563894
F -1.358787 0.991635 0.348348
F -1.749555 -1.014229 0.135581
S 0.888506 -0.201897 0.250156
O 0.690129 -0.258981 1.709724
O 1.995644 -0.911620 -0.542336
O 1.340304 1.367695 -0.090881
H 1.896687 1.423034 -1.177832
9
Time step 1460
C -1.096188 -0.043519 -0.292345
F -1.185408 0.148959 -1.564470
F -1.359234 0.991380 0.348467
F -1.749767 -1.014295 0.135788
S 0.889248 -0.201857 0.249746
O 0.690153 -0.258886 1.710820
O 1.996031 -0.912466 -0.542746
O 1.339961 1.368170 -0.090556
H 1.897395 1.422169 -1.179977
9
Time step 1461
C -1.098160 -0.042762 -0.292033
F -1.184823 0.149009 -1.565054
F -1.359688 0.991145 0.348596
F -1.749988 -1.014377 0.136000
S 0.889996 -0.201816 0.249331
O 0.690179 -0.258792 1.711910
O 1.996401 -0.913311 -0.543147
O 1.339626 1.368648 -0.090254
H 1.897874 1.421236 -1.181676
9
Time step 1462
C -1.100099 -0.042007 -0.291729
F -1.184238 0.149058 -1.565647
F -1.360151 0.990930 0.348737
F -1.750217 -1.014477 0.136215
S 0.890751 -0.201774 0.248911
O 0.690208 -0.258701 1.712996
O 1.996754 -0.914157 -0.543538
O 1.339299 1.369130 -0.089976
H 1.898123 1.420238 -1.182928
9
Time step 1463
C -1.102001 -0.041255 -0.291433
F -1.183653 0.149108 -1.566249
F -1.360621 0.990736 0.348887
F -1.750456 -1.014594 0.136434
S 0.891513 -0.201732 0.248487
O 0.690242 -0.258611 1.714077
O 1.997089 -0.915002 -0.543920
O 1.338981 1.369615 -0.089722
H 1.898141 1.419176 -1.183732
9
Time step 1464
C -1.103866 -0.040507 -0.291145
F -1.183069 0.149157 -1.566860
F -1.361099 0.990564 0.349046
F -1.750704 -1.014731 0.136657
S 0.892281 -0.201689 0.248059
O 0.690280 -0.258524 1.715153
O 1.997408 -0.915847 -0.544293
O 1.338671 1.370105 -0.089492
H 1.897929 1.418051 -1.184086
9
Time step 1465
C -1.105691 -0.039760 -0.290863
F -1.182487 0.149207 -1.567482
F -1.361586 0.990412 0.349216
F -1.750963 -1.014886 0.136884
S 0.893055 -0.201646 0.247627
O 0.690322 -0.258439 1.716222
O 1.997709 -0.916691 -0.544655
O 1.338371 1.370597 -0.089286
H 1.897487 1.416869 -1.183989
9
Time step 1466
C -1.107475 -0.039017 -0.290590
F -1.181907 0.149257 -1.568115
F -1.362080 0.990281 0.349397
F -1.751233 -1.015060 0.137116
S 0.893834 -0.201602 0.247191
O 0.690369 -0.258356 1.717285
O 1.997994 -0.917535 -0.545007
O 1.338080 1.371094 -0.089104
H 1.896815 1.415631 -1.183439
9
Time step 1467
C -1.109220 -0.038278 -0.290325
F -1.181328 0.149306 -1.568759
F -1.362581 0.990171 0.349589
F -1.751513 -1.015252 0.137353
S 0.894620 -0.201557 0.246751
O 0.690421 -0.258275 1.718340
O 1.998261 -0.918378 -0.545349
O 1.337798 1.371593 -0.088946
H 1.895916 1.414341 -1.182436
9
Time step 1468
C -1.110927 -0.037545 -0.290067
F -1.180751 0.149354 -1.569414
F -1.363089 0.990083 0.349793
F -1.751803 -1.015462 0.137595
S 0.895411 -0.201512 0.246308
O 0.690476 -0.258195 1.719386
O 1.998510 -0.919219 -0.545681
O 1.337525 1.372095 -0.088810
H 1.894790 1.413000 -1.180981
9
Time step 1469
C -1.112597 -0.036819 -0.289818
F -1.180175 0.149402 -1.570081
F -1.363603 0.990017 0.350009
F -1.752104 -1.015689 0.137841
S 0.896209 -0.201467 0.245862
O 0.690535 -0.258117 1.720423
O 1.998743 -0.920059 -0.546002
O 1.337260 1.372601 -0.088698
H 1.893438 1.411609 -1.179076
9
Time step 1470
C -1.114231 -0.036102 -0.289577
F -1.179599 0.149450 -1.570757
F -1.364124 0.989974 0.350236
F -1.752414 -1.015934 0.138092
S 0.897013 -0.201421 0.245414
O 0.690599 -0.258040 1.721449
O 1.998957 -0.920897 -0.546312
O 1.337004 1.373108 -0.088610
H 1.891862 1.410168 -1.176726
9
Time step 1471
C -1.115830 -0.035393 -0.289345
F -1.179025 0.149499 -1.571442
F -1.364653 0.989954 0.350474
F -1.752734 -1.016196 0.138345
S 0.897824 -0.201376 0.244964
O 0.690667 -0.257964 1.722465
O 1.999154 -0.921733 -0.546613
O 1.336757 1.373618 -0.088545
H 1.890062 1.408676 -1.173934
9
Time step 1472
C -1.117393 -0.034692 -0.289123
F -1.178451 0.149548 -1.572136
F -1.365188 0.989956 0.350723
F -1.753065 -1.016477 0.138603
S 0.898641 -0.201331 0.244512
O 0.690740 -0.257890 1.723469
O 1.999334 -0.922565 -0.546902
O 1.336520 1.374130 -0.088505
H 1.888040 1.407132 -1.170703
9
Time step 1473
C -1.118920 -0.033998 -0.288913
F -1.177880 0.149598 -1.572839
F -1.365732 0.989981 0.350983
F -1.753405 -1.016777 0.138864
S 0.899464 -0.201286 0.244059
O 0.690818 -0.257817 1.724463
O 1.999495 -0.923395 -0.547181
O 1.336291 1.374644 -0.088488
H 1.885796 1.405537 -1.167034
9
Time step 1474
C -1.120410 -0.033310 -0.288718
F -1.177310 0.149648 -1.573549
F -1.366283 0.990028 0.351254
F -1.753756 -1.017094 0.139130
S 0.900295 -0.201241 0.243606
O 0.690901 -0.257745 1.725445
O 1.999639 -0.924223 -0.547449
O 1.336072 1.375159 -0.088496
H 1.883332 1.403893 -1.162928
9
Time step 1475
C -1.121863 -0.032627 -0.288538
F -1.176742 0.149698 -1.574267
F -1.366842 0.990096 0.351537
F -1.754116 -1.017429 0.139400
S 0.901132 -0.201196 0.243152
O 0.690988 -0.257676 1.726415
O 1.999766 -0.925048 -0.547707
O 1.335863 1.375676 -0.088527
H 1.880648 1.402205 -1.158384
9
Time step 1476
C -1.123277 -0.031952 -0.288375
F -1.176177 0.149747 -1.574992
F -1.367408 0.990187 0.351833
F -1.754486 -1.017780 0.139675
S 0.901974 -0.201150 0.242698
O 0.691080 -0.257608 1.727374
O 1.999876 -0.925871 -0.547956
O 1.335662 1.376195 -0.088582
H 1.877747 1.400476 -1.153401
9
Time step 1477
C -1.124652 -0.031286 -0.288228
F -1.175615 0.149794 -1.575725
F -1.367982 0.990300 0.352140
F -1.754866 -1.018148 0.139955
S 0.902823 -0.201103 0.242244
O 0.691175 -0.257544 1.728320
O 1.999969 -0.926692 -0.548195
O 1.335470 1.376714 -0.088660
H 1.874629 1.398711 -1.147983
9
Time step 1478
C -1.125986 -0.030631 -0.288099
F -1.175056 0.149841 -1.576464
F -1.368563 0.990438 0.352460
F -1.755256 -1.018532 0.140238
S 0.903676 -0.201056 0.241791
O 0.691275 -0.257481 1.729254
O 2.000046 -0.927512 -0.548425
O 1.335286 1.377235 -0.088762
H 1.871299 1.396912 -1.142132
9
Time step 1479
C -1.127278 -0.029987 -0.287986
F -1.174500 0.149886 -1.577209
F -1.369151 0.990599 0.352792
F -1.755655 -1.018931 0.140525
S 0.904535 -0.201007 0.241338
O 0.691378 -0.257421 1.730175
O 2.000108 -0.928330 -0.548646
O 1.335110 1.377757 -0.088887
H 1.867759 1.395082 -1.135856
9
Time step 1480
C -1.128529 -0.029354 -0.287890
F -1.173949 0.149930 -1.577961
F -1.369746 0.990785 0.353137
F -1.756063 -1.019346 0.140815
S 0.905399 -0.200958 0.240887
O 0.691486 -0.257363 1.731083
O 2.000153 -0.929146 -0.548858
O 1.334942 1.378280 -0.089035
H 1.864014 1.393222 -1.129165
9
Time step 1481
C -1.129737 -0.028732 -0.287810
F -1.173400 0.149973 -1.578718
F -1.370349 0.990994 0.353494
F -1.756481 -1.019777 0.141107
S 0.906267 -0.200909 0.240438
O 0.691597 -0.257306 1.731976
O 2.000182 -0.929961 -0.549062
O 1.334782 1.378805 -0.089205
H 1.860069 1.391331 -1.122067
9
Time step 1482
C -1.130904 -0.028118 -0.287745
F -1.172855 0.150015 -1.579482
F -1.370960 0.991224 0.353864
F -1.756907 -1.020223 0.141403
S 0.907140 -0.200861 0.239990
O 0.691713 -0.257250 1.732854
O 2.000195 -0.930773 -0.549256
O 1.334629 1.379330 -0.089398
H 1.855929 1.389410 -1.114576
9
Time step 1483
C -1.132030 -0.027511 -0.287695
F -1.172312 0.150056 -1.580253
F -1.371579 0.991476 0.354246
F -1.757343 -1.020684 0.141701
S 0.908017 -0.200812 0.239544
O 0.691833 -0.257195 1.733716
O 2.000191 -0.931583 -0.549441
O 1.334484 1.379856 -0.089612
H 1.851601 1.387460 -1.106701
9
Time step 1484
C -1.133116 -0.026912 -0.287657
F -1.171771 0.150096 -1.581030
F -1.372207 0.991749 0.354641
F -1.757788 -1.021160 0.142002
S 0.908900 -0.200764 0.239100
O 0.691958 -0.257141 1.734564
O 2.000170 -0.932390 -0.549616
O 1.334345 1.380383 -0.089847
H 1.847091 1.385481 -1.098454
9
Time step 1485
C -1.134162 -0.026321 -0.287632
F -1.171231 0.150136 -1.581814
F -1.372843 0.992043 0.355047
F -1.758242 -1.021652 0.142306
S 0.909787 -0.200716 0.238659
O 0.692088 -0.257090 1.735395
O 2.000132 -0.933195 -0.549782
O 1.334213 1.380911 -0.090104
H 1.842405 1.383476 -1.089845
9
Time step 1486
C -1.135167 -0.025740 -0.287618
F -1.170693 0.150175 -1.582604
F -1.373488 0.992360 0.355464
F -1.758705 -1.022160 0.142612
S 0.910680 -0.200668 0.238219
O 0.692223 -0.257039 1.736210
O 2.000077 -0.933998 -0.549939
O 1.334088 1.381439 -0.090380
H 1.837550 1.381449 -1.080885
9
Time step 1487
C -1.136132 -0.025169 -0.287617
F -1.170158 0.150214 -1.583399
F -1.374142 0.992701 0.355892
F -1.759177 -1.022684 0.142920
S 0.911576 -0.200621 0.237782
O 0.692363 -0.256991 1.737009
O 2.000005 -0.934799 -0.550086
O 1.333969 1.381969 -0.090674
H 1.832534 1.379400 -1.071587
9
Time step 1488
C -1.137056 -0.024609 -0.287631
F -1.169625 0.150252 -1.584199
F -1.374805 0.993066 0.356330
F -1.759658 -1.023225 0.143232
S 0.912477 -0.200573 0.237348
O 0.692509 -0.256944 1.737793
O 1.999917 -0.935598 -0.550225
O 1.333856 1.382500 -0.090987
H 1.827364 1.377334 -1.061963
9
Time step 1489
C -1.137938 -0.024060 -0.287661
F -1.169096 0.150290 -1.585004
F -1.375475 0.993456 0.356780
F -1.760148 -1.023783 0.143546
S 0.913380 -0.200527 0.236917
O 0.692660 -0.256900 1.738560
O 1.999813 -0.936393 -0.550356
O 1.333749 1.383032 -0.091316
H 1.822052 1.375252 -1.052031
9
Time step 1490
C -1.138778 -0.023522 -0.287708
F -1.168570 0.150327 -1.585815
F -1.376154 0.993869 0.357241
F -1.760647 -1.024356 0.143864
S 0.914286 -0.200481 0.236489
O 0.692817 -0.256857 1.739311
O 1.999693 -0.937186 -0.550477
O 1.333648 1.383566 -0.091662
H 1.816608 1.373155 -1.041809
9
Time step 1491
C -1.139576 -0.022995 -0.287771
F -1.168046 0.150363 -1.586630
F -1.376842 0.994305 0.357713
F -1.761155 -1.024945 0.144186
S 0.915194 -0.200436 0.236063
O 0.692980 -0.256816 1.740046
O 1.999558 -0.937976 -0.550590
O 1.333552 1.384101 -0.092021
H 1.811044 1.371044 -1.031322
9
Time step 1492
C -1.140334 -0.022479 -0.287849
F -1.167524 0.150400 -1.587451
F -1.377538 0.994761 0.358197
F -1.761671 -1.025547 0.144511
S 0.916104 -0.200393 0.235640
O 0.693149 -0.256777 1.740765
O 1.999407 -0.938763 -0.550693
O 1.333461 1.384638 -0.092394
H 1.805376 1.368921 -1.020596
9
Time step 1493
C -1.141051 -0.021975 -0.287939
F -1.167005 0.150435 -1.588278
F -1.378243 0.995238 0.358691
F -1.762196 -1.026163 0.144839
S 0.917016 -0.200349 0.235220
O 0.693324 -0.256740 1.741467
O 1.999242 -0.939546 -0.550786
O 1.333374 1.385176 -0.092780
H 1.799617 1.366786 -1.009661
9
Time step 1494
C -1.141730 -0.021484 -0.288041
F -1.166488 0.150471 -1.589110
F -1.378956 0.995737 0.359195
F -1.762729 -1.026791 0.145170
S 0.917930 -0.200307 0.234803
O 0.693505 -0.256706 1.742153
O 1.999062 -0.940325 -0.550870
O 1.333289 1.385715 -0.093175
H 1.793787 1.364643 -0.998551
9
Time step 1495
C -1.142370 -0.021008 -0.288155
F -1.165973 0.150508 -1.589946
F -1.379678 0.996257 0.359710
F -1.763269 -1.027431 0.145502
S 0.918845 -0.200265 0.234390
O 0.693693 -0.256674 1.742820
O 1.998866 -0.941101 -0.550945
O 1.333205 1.386253 -0.093577
H 1.787903 1.362493 -0.987305
9
Time step 1496
C -1.142973 -0.020548 -0.288282
F -1.165462 0.150544 -1.590787
F -1.380408 0.996801 0.360234
F -1.763817 -1.028085 0.145836
S 0.919763 -0.200223 0.233982
O 0.693887 -0.256645 1.743469
O 1.998657 -0.941874 -0.551010
O 1.333121 1.386791 -0.093985
H 1.781987 1.360340 -0.975962
9
Time step 1497
C -1.143538 -0.020104 -0.288425
F -1.164954 0.150580 -1.591631
F -1.381145 0.997368 0.360768
F -1.764370 -1.028751 0.146172
S 0.920682 -0.200181 0.233579
O 0.694089 -0.256618 1.744098
O 1.998432 -0.942643 -0.551067
O 1.333035 1.387327 -0.094395
H 1.776062 1.358187 -0.964570
9
Time step 1498
C -1.144066 -0.019675 -0.288585
F -1.164450 0.150615 -1.592477
F -1.381889 0.997959 0.361313
F -1.764930 -1.029431 0.146509
S 0.921601 -0.200139 0.233181
O 0.694297 -0.256594 1.744708
O 1.998194 -0.943408 -0.551113
O 1.332946 1.387861 -0.094803
H 1.770154 1.356037 -0.953175
9
Time step 1499
C -1.144556 -0.019262 -0.288762
F -1.163950 0.150650 -1.593327
F -1.382641 0.998572 0.361869
F -1.765496 -1.030122 0.146848
S 0.922522 -0.200096 0.232790
O 0.694512 -0.256572 1.745298
O 1.997941 -0.944169 -0.551151
O 1.332852 1.388391 -0.095208
H 1.764291 1.353892 -0.941831
9
Time step 1500
C -1.145008 -0.018864 -0.288957
F -1.163453 0.150683 -1.594179
F -1.383401 0.999207 0.362435
F -1.766069 -1.030825 0.147189
S 0.923443 -0.200052 0.232403
O 0.694733 -0.256553 1.745869
O 1.997675 -0.944926 -0.551180
O 1.332751 1.388918 -0.095605
H 1.758503 1.351754 -0.930594
9
Time step 1501
C -1.145420 -0.018481 -0.289167
F -1.162960 0.150717 -1.595033
F -1.384168 0.999862 0.363012
F -1.766650 -1.031538 0.147530
S 0.924366 -0.200008 0.232022
O 0.694961 -0.256536 1.746420
O 1.997394 -0.945678 -0.551200
O 1.332642 1.389441 -0.095992
H 1.752820 1.349623 -0.919527
9
Time step 1502
C -1.145792 -0.018112 -0.289391
F -1.162469 0.150749 -1.595890
F -1.384943 1.000536 0.363599
F -1.767237 -1.032260 0.147873
S 0.925289 -0.199964 0.231647
O 0.695196 -0.256521 1.746952
O 1.997100 -0.946427 -0.551210
O 1.332522 1.389961 -0.096363
H 1.747278 1.347501 -0.908695
9
Time step 1503
C -1.146124 -0.017759 -0.289626
F -1.161982 0.150781 -1.596748
F -1.385726 1.001228 0.364196
F -1.767832 -1.032991 0.148216
S 0.926213 -0.199919 0.231276
O 0.695436 -0.256506 1.747464
O 1.996791 -0.947170 -0.551212
O 1.332388 1.390478 -0.096716
H 1.741911 1.345386 -0.898170
9
Time step 1504
C -1.146417 -0.017419 -0.289873
F -1.161499 0.150812 -1.597609
F -1.386517 1.001939 0.364802
F -1.768434 -1.033731 0.148558
S 0.927138 -0.199876 0.230911
O 0.695683 -0.256492 1.747957
O 1.996468 -0.947909 -0.551204
O 1.332240 1.390993 -0.097044
H 1.736757 1.343276 -0.888027
9
Time step 1505
C -1.146671 -0.017094 -0.290133
F -1.161018 0.150842 -1.598472
F -1.387316 1.002668 0.365418
F -1.769042 -1.034479 0.148900
S 0.928064 -0.199834 0.230552
O 0.695936 -0.256479 1.748428
O 1.996132 -0.948643 -0.551188
O 1.332073 1.391505 -0.097343
H 1.731857 1.341168 -0.878347
9
Time step 1506
C -1.146889 -0.016782 -0.290405
F -1.160542 0.150872 -1.599337
F -1.388121 1.003415 0.366044
F -1.769656 -1.035237 0.149242
S 0.928989 -0.199794 0.230200
O 0.696195 -0.256465 1.748879
O 1.995781 -0.949372 -0.551163
O 1.331886 1.392016 -0.097608
H 1.727250 1.339057 -0.869211
9
Time step 1507
C -1.147072 -0.016485 -0.290691
F -1.160069 0.150901 -1.600203
F -1.388932 1.004180 0.366678
F -1.770274 -1.036004 0.149584
S 0.929915 -0.199755 0.229855
O 0.696461 -0.256452 1.749308
O 1.995417 -0.950097 -0.551129
O 1.331677 1.392527 -0.097835
H 1.722979 1.336937 -0.860701
9
Time step 1508
C -1.147220 -0.016201 -0.290991
F -1.159600 0.150930 -1.601070
F -1.389749 1.004965 0.367322
F -1.770898 -1.036781 0.149926
S 0.930840 -0.199717 0.229517
O 0.696734 -0.256439 1.749716
O 1.995039 -0.950818 -0.551086
O 1.331444 1.393038 -0.098017
H 1.719085 1.334800 -0.852898
9
Time step 1509
C -1.147335 -0.015933 -0.291305
F -1.159135 0.150960 -1.601939
F -1.390572 1.005767 0.367975
F -1.771527 -1.037567 0.150268
S 0.931765 -0.199681 0.229187
O 0.697013 -0.256428 1.750103
O 1.994647 -0.951533 -0.551035
O 1.331184 1.393550 -0.098152
H 1.715610 1.332640 -0.845876
9
Time step 1510
C -1.147414 -0.015680 -0.291632
F -1.158673 0.150989 -1.602809
F -1.391401 1.006588 0.368635
F -1.772161 -1.038362 0.150610
S 0.932690 -0.199645 0.228866
O 0.697299 -0.256419 1.750468
O 1.994242 -0.952244 -0.550975
O 1.330896 1.394065 -0.098235
H 1.712590 1.330449 -0.839701
9
Time step 1511
C -1.147456 -0.015441 -0.291973
F -1.158217 0.151017 -1.603680
F -1.392238 1.007426 0.369303
F -1.772801 -1.039166 0.150951
S 0.933615 -0.199610 0.228554
O 0.697591 -0.256413 1.750812
O 1.993822 -0.952951 -0.550908
O 1.330577 1.394582 -0.098264
H 1.710060 1.328221 -0.834432
9
Time step 1512
C -1.147462 -0.015215 -0.292325
F -1.157765 0.151045 -1.604551
F -1.393083 1.008280 0.369979
F -1.773448 -1.039978 0.151293
S 0.934540 -0.199576 0.228250
O 0.697890 -0.256409 1.751134
O 1.993390 -0.953652 -0.550834
O 1.330227 1.395102 -0.098234
H 1.708049 1.325951 -0.830115
9
Time step 1513
C -1.147431 -0.014999 -0.292688
F -1.157317 0.151070 -1.605424
F -1.393935 1.009151 0.370661
F -1.774100 -1.040797 0.151634
S 0.935465 -0.199544 0.227956
O 0.698195 -0.256408 1.751435
O 1.992945 -0.954349 -0.550753
O 1.329843 1.395626 -0.098144
H 1.706581 1.323634 -0.826786
9
Time step 1514
C -1.147363 -0.014794 -0.293060
F -1.156874 0.151094 -1.606296
F -1.394793 1.010036 0.371349
F -1.774757 -1.041623 0.151974
S 0.936388 -0.199512 0.227671
O 0.698507 -0.256409 1.751714
O 1.992487 -0.955043 -0.550665
O 1.329424 1.396153 -0.097992
H 1.705673 1.321265 -0.824473
9
Time step 1515
C -1.147261 -0.014597 -0.293440
F -1.156435 0.151116 -1.607170
F -1.395659 1.010936 0.372044
F -1.775418 -1.042457 0.152313
S 0.937309 -0.199481 0.227395
O 0.698825 -0.256412 1.751970
O 1.992019 -0.955732 -0.550572
O 1.328969 1.396684 -0.097777
H 1.705335 1.318841 -0.823191
9
Time step 1516
C -1.147126 -0.014411 -0.293826
F -1.155999 0.151137 -1.608045
F -1.396530 1.011850 0.372745
F -1.776083 -1.043297 0.152651
S 0.938227 -0.199450 0.227129
O 0.699150 -0.256416 1.752204
O 1.991539 -0.956419 -0.550473
O 1.328479 1.397218 -0.097498
H 1.705573 1.316357 -0.822947
9
Time step 1517
C -1.146958 -0.014237 -0.294217
F -1.155566 0.151158 -1.608921
F -1.397408 1.012779 0.373451
F -1.776752 -1.044145 0.152988
S 0.939143 -0.199420 0.226871
O 0.699482 -0.256422 1.752415
O 1.991049 -0.957102 -0.550367
O 1.327952 1.397754 -0.097155
H 1.706380 1.313812 -0.823734
9
Time step 1518
C -1.146759 -0.014079 -0.294614
F -1.155136 0.151179 -1.609798
F -1.398293 1.013724 0.374164
F -1.777424 -1.044998 0.153323
S 0.940057 -0.199388 0.226624
O 0.699822 -0.256430 1.752602
O 1.990547 -0.957783 -0.550255
O 1.327391 1.398292 -0.096750
H 1.707748 1.311204 -0.825535
9
Time step 1519
C -1.146527 -0.013938 -0.295016
F -1.154709 0.151201 -1.610677
F -1.399185 1.014683 0.374881
F -1.778098 -1.045857 0.153658
S 0.940967 -0.199356 0.226385
O 0.700168 -0.256440 1.752766
O 1.990034 -0.958460 -0.550135
O 1.326796 1.398833 -0.096286
H 1.709657 1.308534 -0.828318
9
Time step 1520
C -1.146263 -0.013816 -0.295426
F -1.154285 0.151225 -1.611555
F -1.400084 1.015658 0.375603
F -1.778775 -1.046721 0.153992
S 0.941876 -0.199323 0.226157
O 0.700521 -0.256453 1.752907
O 1.989509 -0.959135 -0.550009
O 1.326168 1.399375 -0.095766
H 1.712085 1.305809 -0.832041
9
Time step 1521
C -1.145967 -0.013711 -0.295843
F -1.153865 0.151250 -1.612432
F -1.400990 1.016647 0.376329
F -1.779453 -1.047589 0.154325
S 0.942783 -0.199290 0.225938
O 0.700881 -0.256468 1.753025
O 1.988973 -0.959806 -0.549876
O 1.325510 1.399917 -0.095192
H 1.715003 1.303034 -0.836648
9
Time step 1522
C -1.145641 -0.013623 -0.296269
F -1.153450 0.151276 -1.613308
F -1.401902 1.017648 0.377059
F -1.780133 -1.048460 0.154657
S 0.943687 -0.199256 0.225729
O 0.701248 -0.256487 1.753120
O 1.988424 -0.960473 -0.549737
O 1.324823 1.400461 -0.094570
H 1.718379 1.300219 -0.842078
9
Time step 1523
C -1.145286 -0.013548 -0.296703
F -1.153038 0.151302 -1.614181
F -1.402819 1.018661 0.377792
F -1.780814 -1.049335 0.154988
S 0.944589 -0.199221 0.225530
O 0.701621 -0.256509 1.753194
O 1.987865 -0.961137 -0.549590
O 1.324111 1.401004 -0.093903
H 1.722179 1.297375 -0.848261
9
Time step 1524
C -1.144901 -0.013485 -0.297144
F -1.152631 0.151327 -1.615052
F -1.403741 1.019685 0.378528
F -1.781497 -1.050213 0.155316
S 0.945488 -0.199186 0.225341
O 0.702001 -0.256533 1.753245
O 1.987293 -0.961796 -0.549437
O 1.323375 1.401548 -0.093197
H 1.726367 1.294511 -0.855125
9
Time step 1525
C -1.144488 -0.013433 -0.297591
F -1.152227 0.151352 -1.615921
F -1.404668 1.020719 0.379268
F -1.782181 -1.051094 0.155642
S 0.946383 -0.199152 0.225163
O 0.702389 -0.256560 1.753275
O 1.986711 -0.962450 -0.549277
O 1.322618 1.402092 -0.092457
H 1.730905 1.291637 -0.862599
9
Time step 1526
C -1.144045 -0.013392 -0.298044
F -1.151827 0.151376 -1.616789
F -1.405599 1.021764 0.380012
F -1.782868 -1.051978 0.155965
S 0.947274 -0.199117 0.224995
O 0.702785 -0.256590 1.753283
O 1.986118 -0.963100 -0.549110
O 1.321843 1.402634 -0.091688
H 1.735756 1.288761 -0.870611
9
Time step 1527
C -1.143572 -0.013363 -0.298502
F -1.151430 0.151399 -1.617654
F -1.406535 1.022818 0.380760
F -1.783558 -1.052865 0.156284
S 0.948162 -0.199083 0.224837
O 0.703188 -0.256622 1.753270
O 1.985514 -0.963745 -0.548936
O 1.321051 1.403176 -0.090893
H 1.740884 1.285890 -0.879092
9
Time step 1528
C -1.143069 -0.013345 -0.298966
F -1.151038 0.151421 -1.618518
F -1.407477 1.023882 0.381512
F -1.784251 -1.053754 0.156599
S 0.949046 -0.199049 0.224689
O 0.703601 -0.256656 1.753234
O 1.984900 -0.964386 -0.548755
O 1.320246 1.403715 -0.090078
H 1.746249 1.283032 -0.887973
9
Time step 1529
C -1.142535 -0.013340 -0.299436
F -1.150649 0.151443 -1.619380
F -1.408423 1.024956 0.382268
F -1.784946 -1.054645 0.156912
S 0.949926 -0.199016 0.224553
O 0.704022 -0.256692 1.753174
O 1.984273 -0.965021 -0.548567
O 1.319430 1.404251 -0.089246
H 1.751816 1.280194 -0.897186
9
Time step 1530
C -1.141973 -0.013346 -0.299912
F -1.150264 0.151464 -1.620240
F -1.409376 1.026039 0.383027
F -1.785642 -1.055538 0.157221
S 0.950801 -0.198983 0.224428
O 0.704451 -0.256729 1.753091
O 1.983636 -0.965652 -0.548372
O 1.318604 1.404784 -0.088401
H 1.757547 1.277384 -0.906665
9
Time step 1531
C -1.141382 -0.013363 -0.300394
F -1.149882 0.151484 -1.621097
F -1.410332 1.027130 0.383789
F -1.786339 -1.056432 0.157527
S 0.951672 -0.198950 0.224314
O 0.704889 -0.256769 1.752984
O 1.982988 -0.966279 -0.548171
O 1.317772 1.405314 -0.087547
H 1.763407 1.274612 -0.916344
9
Time step 1532
C -1.140764 -0.013391 -0.300879
F -1.149505 0.151504 -1.621950
F -1.411293 1.028228 0.384553
F -1.787036 -1.057327 0.157830
S 0.952539 -0.198916 0.224211
O 0.705335 -0.256811 1.752852
O 1.982330 -0.966901 -0.547963
O 1.316935 1.405839 -0.086688
H 1.769364 1.271887 -0.926161
9
Time step 1533
C -1.140118 -0.013429 -0.301367
F -1.149132 0.151523 -1.622801
F -1.412258 1.029334 0.385317
F -1.787734 -1.058223 0.158128
S 0.953400 -0.198882 0.224121
O 0.705790 -0.256854 1.752696
O 1.981661 -0.967520 -0.547749
O 1.316096 1.406359 -0.085826
H 1.775385 1.269221 -0.936057
9
Time step 1534
C -1.139445 -0.013479 -0.301855
F -1.148764 0.151540 -1.623650
F -1.413226 1.030446 0.386082
F -1.788433 -1.059118 0.158422
S 0.954256 -0.198847 0.224042
O 0.706252 -0.256900 1.752515
O 1.980983 -0.968136 -0.547531
O 1.315257 1.406874 -0.084966
H 1.781442 1.266623 -0.945978
9
Time step 1535
C -1.138742 -0.013539 -0.302341
F -1.148401 0.151555 -1.624496
F -1.414198 1.031565 0.386848
F -1.789134 -1.060014 0.158712
S 0.955106 -0.198811 0.223975
O 0.706723 -0.256947 1.752310
O 1.980295 -0.968750 -0.547309
O 1.314420 1.407383 -0.084109
H 1.787510 1.264103 -0.955875
9
Time step 1536
C -1.138009 -0.013611 -0.302828
F -1.148043 0.151568 -1.625341
F -1.415175 1.032691 0.387615
F -1.789836 -1.060909 0.158997
S 0.955951 -0.198774 0.223921
O 0.707202 -0.256996 1.752081
O 1.979600 -0.969360 -0.547083
O 1.313586 1.407887 -0.083259
H 1.793566 1.261668 -0.965705
9
Time step 1537
C -1.137246 -0.013695 -0.303313
F -1.147690 0.151580 -1.626184
F -1.416156 1.033823 0.388382
F -1.790539 -1.061803 0.159279
S 0.956789 -0.198737 0.223878
O 0.707687 -0.257047 1.751829
O 1.978897 -0.969968 -0.546855
O 1.312757 1.408384 -0.082418
H 1.799589 1.259324 -0.975429
9
Time step 1538
C -1.136453 -0.013790 -0.303798
F -1.147342 0.151591 -1.627025
F -1.417142 1.034962 0.389149
F -1.791243 -1.062697 0.159558
S 0.957621 -0.198698 0.223847
O 0.708180 -0.257099 1.751553
O 1.978186 -0.970573 -0.546623
O 1.311933 1.408874 -0.081588
H 1.805558 1.257076 -0.985016
9
Time step 1539
C -1.135632 -0.013896 -0.304282
F -1.146997 0.151601 -1.627862
F -1.418132 1.036108 0.389916
F -1.791947 -1.063590 0.159833
S 0.958447 -0.198659 0.223827
O 0.708680 -0.257153 1.751255
O 1.977468 -0.971176 -0.546388
O 1.311117 1.409356 -0.080771
H 1.811455 1.254925 -0.994433
9
Time step 1540
C -1.134787 -0.014014 -0.304765
F -1.146657 0.151612 -1.628697
F -1.419125 1.037259 0.390682
F -1.792651 -1.064484 0.160104
S 0.959267 -0.198619 0.223817
O 0.709186 -0.257209 1.750936
O 1.976744 -0.971776 -0.546149
O 1.310308 1.409830 -0.079969
H 1.817264 1.252873 -1.003655
9
Time step 1541
C -1.133917 -0.014143 -0.305246
F -1.146322 0.151622 -1.629527
F -1.420121 1.038417 0.391446
F -1.793354 -1.065377 0.160372
S 0.960081 -0.198578 0.223818
O 0.709699 -0.257266 1.750595
O 1.976013 -0.972373 -0.545907
O 1.309508 1.410295 -0.079183
H 1.822967 1.250922 -1.012655
9
Time step 1542
C -1.133024 -0.014282 -0.305723
F -1.145991 0.151632 -1.630354
F -1.421121 1.039579 0.392207
F -1.794056 -1.066269 0.160635
S 0.960888 -0.198534 0.223829
O 0.710219 -0.257326 1.750234
O 1.975274 -0.972968 -0.545661
O 1.308717 1.410750 -0.078416
H 1.828550 1.249072 -1.021410
9
Time step 1543
C -1.132107 -0.014431 -0.306197
F -1.145664 0.151643 -1.631177
F -1.422124 1.040744 0.392966
F -1.794755 -1.067160 0.160895
S 0.961690 -0.198487 0.223851
O 0.710746 -0.257389 1.749850
O 1.974529 -0.973562 -0.545410
O 1.307937 1.411195 -0.077668
H 1.833999 1.247328 -1.029897
9
Time step 1544
C -1.131166 -0.014588 -0.306669
F -1.145343 0.151653 -1.631997
F -1.423130 1.041912 0.393723
F -1.795453 -1.068048 0.161150
S 0.962485 -0.198437 0.223883
O 0.711280 -0.257454 1.749445
O 1.973776 -0.974153 -0.545155
O 1.307168 1.411629 -0.076940
H 1.839301 1.245692 -1.038095
9
Time step 1545
C -1.130201 -0.014753 -0.307139
F -1.145027 0.151662 -1.632812
F -1.424140 1.043082 0.394478
F -1.796150 -1.068932 0.161401
S 0.963275 -0.198385 0.223925
O 0.711821 -0.257521 1.749018
O 1.973016 -0.974743 -0.544895
O 1.306411 1.412052 -0.076234
H 1.844445 1.244168 -1.045985
9
Time step 1546
C -1.129213 -0.014924 -0.307609
F -1.144714 0.151671 -1.633625
F -1.425153 1.044252 0.395231
F -1.796844 -1.069814 0.161649
S 0.964059 -0.198330 0.223978
O 0.712370 -0.257592 1.748569
O 1.972248 -0.975331 -0.544630
O 1.305666 1.412465 -0.075551
H 1.849425 1.242760 -1.053551
9
Time step 1547
C -1.128205 -0.015102 -0.308075
F -1.144406 0.151679 -1.634433
F -1.426169 1.045422 0.395981
F -1.797536 -1.070691 0.161894
S 0.964837 -0.198273 0.224042
O 0.712927 -0.257665 1.748097
O 1.971472 -0.975916 -0.544360
O 1.304932 1.412867 -0.074892
H 1.854231 1.241470 -1.060780
9
Time step 1548
C -1.127179 -0.015288 -0.308537
F -1.144101 0.151687 -1.635238
F -1.427186 1.046594 0.396728
F -1.798225 -1.071566 0.162133
S 0.965610 -0.198214 0.224117
O 0.713491 -0.257742 1.747604
O 1.970688 -0.976499 -0.544086
O 1.304211 1.413259 -0.074259
H 1.858859 1.240298 -1.067661
9
Time step 1549
C -1.126136 -0.015484 -0.308993
F -1.143799 0.151695 -1.636038
F -1.428204 1.047767 0.397472
F -1.798913 -1.072436 0.162367
S 0.966376 -0.198153 0.224203
O 0.714064 -0.257821 1.747090
O 1.969897 -0.977079 -0.543808
O 1.303502 1.413641 -0.073653
H 1.863304 1.239244 -1.074186
9
Time step 1550
C -1.125076 -0.015691 -0.309440
F -1.143500 0.151704 -1.636835
F -1.429223 1.048941 0.398212
F -1.799598 -1.073303 0.162594
S 0.967137 -0.198090 0.224301
O 0.714645 -0.257904 1.746555
O 1.969097 -0.977656 -0.543524
O 1.302805 1.414014 -0.073075
H 1.867561 1.238306 -1.080347
9
Time step 1551
C -1.123998 -0.015910 -0.309877
F -1.143205 0.151713 -1.637627
F -1.430243 1.050118 0.398948
F -1.800280 -1.074165 0.162814
S 0.967891 -0.198025 0.224409
O 0.715234 -0.257990 1.745998
O 1.968291 -0.978231 -0.543236
O 1.302121 1.414376 -0.072524
H 1.871625 1.237481 -1.086138
9
Time step 1552
C -1.122899 -0.016139 -0.310307
F -1.142915 0.151722 -1.638414
F -1.431265 1.051295 0.399680
F -1.800960 -1.075023 0.163026
S 0.968639 -0.197958 0.224530
O 0.715832 -0.258078 1.745421
O 1.967477 -0.978803 -0.542944
O 1.301451 1.414729 -0.072002
H 1.875492 1.236769 -1.091553
9
Time step 1553
C -1.121779 -0.016378 -0.310732
F -1.142629 0.151731 -1.639195
F -1.432290 1.052471 0.400409
F -1.801637 -1.075874 0.163231
S 0.969380 -0.197889 0.224661
O 0.716438 -0.258168 1.744821
O 1.966656 -0.979374 -0.542649
O 1.300794 1.415072 -0.071508
H 1.879159 1.236169 -1.096585
9
Time step 1554
C -1.120635 -0.016624 -0.311153
F -1.142347 0.151739 -1.639970
F -1.433317 1.053644 0.401133
F -1.802311 -1.076719 0.163431
S 0.970114 -0.197817 0.224805
O 0.717051 -0.258260 1.744198
O 1.965829 -0.979943 -0.542350
O 1.300151 1.415406 -0.071041
H 1.882620 1.235683 -1.101228
9
Time step 1555
C -1.119470 -0.016873 -0.311572
F -1.142070 0.151746 -1.640738
F -1.434346 1.054815 0.401854
F -1.802982 -1.077558 0.163627
S 0.970840 -0.197743 0.224961
O 0.717673 -0.258353 1.743551
O 1.964996 -0.980512 -0.542048
O 1.299524 1.415729 -0.070600
H 1.885873 1.235316 -1.105477
9
Time step 1556
C -1.118285 -0.017125 -0.311988
F -1.141797 0.151751 -1.641500
F -1.435376 1.055982 0.402570
F -1.803649 -1.078392 0.163818
S 0.971557 -0.197667 0.225128
O 0.718301 -0.258448 1.742881
O 1.964157 -0.981080 -0.541745
O 1.298911 1.416042 -0.070187
H 1.888914 1.235070 -1.109327
9
Time step 1557
C -1.117082 -0.017379 -0.312399
F -1.141527 0.151755 -1.642256
F -1.436407 1.057145 0.403281
F -1.804312 -1.079221 0.164005
S 0.972265 -0.197588 0.225308
O 0.718938 -0.258544 1.742187
O 1.963312 -0.981648 -0.541440
O 1.298314 1.416345 -0.069800
H 1.891742 1.234949 -1.112775
9
Time step 1558
C -1.115863 -0.017637 -0.312802
F -1.141261 0.151758 -1.643006
F -1.437439 1.058306 0.403985
F -1.804972 -1.080046 0.164186
S 0.972965 -0.197507 0.225501
O 0.719582 -0.258643 1.741471
O 1.962463 -0.982215 -0.541134
O 1.297733 1.416637 -0.069442
H 1.894353 1.234954 -1.115819
9
Time step 1559
C -1.114628 -0.017899 -0.313195
F -1.140998 0.151759 -1.643750
F -1.438470 1.059465 0.404684
F -1.805628 -1.080865 0.164361
S 0.973657 -0.197422 0.225705
O 0.720234 -0.258743 1.740733
O 1.961609 -0.982781 -0.540827
O 1.297169 1.416920 -0.069111
H 1.896748 1.235087 -1.118456
9
Time step 1560
C -1.113378 -0.018168 -0.313576
F -1.140741 0.151758 -1.644490
F -1.439502 1.060622 0.405375
F -1.806281 -1.081679 0.164527
S 0.974341 -0.197334 0.225923
O 0.720895 -0.258847 1.739975
O 1.960750 -0.983346 -0.540519
O 1.296620 1.417191 -0.068810
H 1.898925 1.235346 -1.120687
9
Time step 1561
C -1.112111 -0.018442 -0.313947
F -1.140487 0.151755 -1.645223
F -1.440535 1.061776 0.406061
F -1.806930 -1.082486 0.164686
S 0.975016 -0.197243 0.226153
O 0.721563 -0.258953 1.739196
O 1.959886 -0.983910 -0.540211
O 1.296088 1.417452 -0.068538
H 1.900885 1.235729 -1.122511
9
Time step 1562
C -1.110827 -0.018723 -0.314307
F -1.140239 0.151751 -1.645950
F -1.441568 1.062927 0.406741
F -1.807575 -1.083286 0.164836
S 0.975683 -0.197149 0.226395
O 0.722240 -0.259061 1.738397
O 1.959018 -0.984473 -0.539902
O 1.295572 1.417701 -0.068295
H 1.902626 1.236233 -1.123930
9
Time step 1563
C -1.109525 -0.019009 -0.314660
F -1.139995 0.151746 -1.646671
F -1.442603 1.064075 0.407415
F -1.808216 -1.084080 0.164979
S 0.976341 -0.197050 0.226650
O 0.722924 -0.259172 1.737579
O 1.958146 -0.985036 -0.539592
O 1.295073 1.417939 -0.068081
H 1.904150 1.236855 -1.124944
9
Time step 1564
C -1.108207 -0.019300 -0.315006
F -1.139755 0.151740 -1.647383
F -1.443638 1.065217 0.408083
F -1.808853 -1.084867 0.165116
S 0.976991 -0.196948 0.226915
O 0.723615 -0.259284 1.736742
O 1.957269 -0.985598 -0.539281
O 1.294590 1.418165 -0.067897
H 1.905453 1.237592 -1.125554
9
Time step 1565
C -1.106873 -0.019595 -0.315344
F -1.139518 0.151734 -1.648089
F -1.444674 1.066355 0.408744
F -1.809485 -1.085647 0.165247
S 0.977632 -0.196842 0.227192
O 0.724313 -0.259399 1.735885
O 1.956389 -0.986159 -0.538970
O 1.294122 1.418380 -0.067741
H 1.906537 1.238443 -1.125762
9
Time step 1566
C -1.105525 -0.019896 -0.315674
F -1.139284 0.151728 -1.648787
F -1.445710 1.067487 0.409399
F -1.810113 -1.086420 0.165372
S 0.978264 -0.196732 0.227480
O 0.725018 -0.259516 1.735009
O 1.955504 -0.986721 -0.538658
O 1.293671 1.418583 -0.067614
H 1.907398 1.239407 -1.125568
9
Time step 1567
C -1.104161 -0.020201 -0.315994
F -1.139054 0.151722 -1.649478
F -1.446746 1.068615 0.410046
F -1.810737 -1.087187 0.165491
S 0.978887 -0.196618 0.227779
O 0.725729 -0.259636 1.734115
O 1.954616 -0.987282 -0.538345
O 1.293237 1.418775 -0.067516
H 1.908035 1.240484 -1.124972
9
Time step 1568
C -1.102784 -0.020512 -0.316303
F -1.138828 0.151715 -1.650163
F -1.447782 1.069739 0.410685
F -1.811356 -1.087947 0.165603
S 0.979502 -0.196499 0.228088
O 0.726448 -0.259759 1.733203
O 1.953724 -0.987842 -0.538031
O 1.292819 1.418957 -0.067445
H 1.908445 1.241677 -1.123973
9
Time step 1569
C -1.101393 -0.020829 -0.316599
F -1.138607 0.151706 -1.650842
F -1.448817 1.070858 0.411316
F -1.811969 -1.088699 0.165707
S 0.980108 -0.196376 0.228407
O 0.727174 -0.259885 1.732272
O 1.952828 -0.988403 -0.537715
O 1.292418 1.419128 -0.067404
H 1.908625 1.242986 -1.122567
9
Time step 1570
C -1.099989 -0.021151 -0.316882
F -1.138390 0.151696 -1.651514
F -1.449851 1.071972 0.411939
F -1.812577 -1.089443 0.165804
S 0.980704 -0.196250 0.228737
O 0.727908 -0.260015 1.731324
O 1.951928 -0.988962 -0.537398
O 1.292034 1.419289 -0.067390
H 1.908573 1.244414 -1.120755
9
Time step 1571
C -1.098574 -0.021477 -0.317152
F -1.138178 0.151685 -1.652179
F -1.450882 1.073079 0.412553
F -1.813178 -1.090179 0.165893
S 0.981291 -0.196120 0.229077
O 0.728650 -0.260149 1.730358
O 1.951025 -0.989522 -0.537079
O 1.291668 1.419441 -0.067405
H 1.908288 1.245961 -1.118532
9
Time step 1572
C -1.097150 -0.021807 -0.317410
F -1.137970 0.151673 -1.652838
F -1.451912 1.074180 0.413158
F -1.813772 -1.090906 0.165975
S 0.981867 -0.195987 0.229427
O 0.729400 -0.260285 1.729374
O 1.950117 -0.990081 -0.536758
O 1.291318 1.419584 -0.067448
H 1.907769 1.247628 -1.115901
9
Time step 1573
C -1.095718 -0.022140 -0.317657
F -1.137766 0.151660 -1.653489
F -1.452940 1.075274 0.413755
F -1.814359 -1.091624 0.166051
S 0.982434 -0.195850 0.229788
O 0.730157 -0.260424 1.728371
O 1.949207 -0.990641 -0.536436
O 1.290986 1.419716 -0.067520
H 1.907015 1.249412 -1.112861
9
Time step 1574
C -1.094278 -0.022478 -0.317890
F -1.137564 0.151648 -1.654134
F -1.453965 1.076360 0.414342
F -1.814939 -1.092334 0.166119
S 0.982991 -0.195710 0.230160
O 0.730922 -0.260566 1.727350
O 1.948293 -0.991201 -0.536112
O 1.290670 1.419839 -0.067620
H 1.906028 1.251311 -1.109416
9
Time step 1575
C -1.092830 -0.022819 -0.318112
F -1.137365 0.151635 -1.654771
F -1.454988 1.077437 0.414921
F -1.815513 -1.093034 0.166180
S 0.983538 -0.195567 0.230542
O 0.731695 -0.260709 1.726310
O 1.947376 -0.991761 -0.535787
O 1.290371 1.419952 -0.067749
H 1.904809 1.253322 -1.105571
9
Time step 1576
C -1.091373 -0.023164 -0.318321
F -1.137169 0.151623 -1.655402
F -1.456009 1.078506 0.415492
F -1.816081 -1.093726 0.166235
S 0.984076 -0.195419 0.230934
O 0.732476 -0.260853 1.725252
O 1.946456 -0.992321 -0.535460
O 1.290089 1.420053 -0.067906
H 1.903359 1.255442 -1.101330
9
Time step 1577
C -1.089906 -0.023514 -0.318518
F -1.136977 0.151610 -1.656025
F -1.457030 1.079567 0.416054
F -1.816642 -1.094409 0.166282
S 0.984605 -0.195268 0.231337
O 0.733263 -0.260999 1.724176
O 1.945533 -0.992880 -0.535133
O 1.289825 1.420143 -0.068090
H 1.901681 1.257670 -1.096698
9
Time step 1578
C -1.088428 -0.023866 -0.318704
F -1.136790 0.151597 -1.656641
F -1.458050 1.080620 0.416608
F -1.817197 -1.095083 0.166321
S 0.985125 -0.195112 0.231750
O 0.734057 -0.261147 1.723083
O 1.944606 -0.993439 -0.534805
O 1.289577 1.420222 -0.068301
H 1.899777 1.260005 -1.091678
9
Time step 1579
C -1.086942 -0.024219 -0.318879
F -1.136606 0.151582 -1.657248
F -1.459069 1.081663 0.417153
F -1.817746 -1.095747 0.166353
S 0.985636 -0.194952 0.232173
O 0.734859 -0.261296 1.721973
O 1.943676 -0.993998 -0.534476
O 1.289348 1.420289 -0.068538
H 1.897650 1.262451 -1.086274
9
Time step 1580
C -1.085450 -0.024574 -0.319043
F -1.136425 0.151565 -1.657847
F -1.460086 1.082698 0.417689
F -1.818288 -1.096402 0.166378
S 0.986138 -0.194788 0.232604
O 0.735667 -0.261448 1.720849
O 1.942742 -0.994556 -0.534146
O 1.289135 1.420344 -0.068801
H 1.895303 1.265008 -1.080486
9
Time step 1581
C -1.083952 -0.024929 -0.319197
F -1.136247 0.151546 -1.658437
F -1.461100 1.083724 0.418216
F -1.818823 -1.097048 0.166396
S 0.986630 -0.194619 0.233043
O 0.736483 -0.261602 1.719709
O 1.941805 -0.995114 -0.533816
O 1.288940 1.420388 -0.069090
H 1.892739 1.267679 -1.074319
9
Time step 1582
C -1.082451 -0.025283 -0.319338
F -1.136071 0.151525 -1.659018
F -1.462111 1.084741 0.418733
F -1.819351 -1.097685 0.166407
S 0.987111 -0.194445 0.233491
O 0.737306 -0.261759 1.718556
O 1.940865 -0.995671 -0.533485
O 1.288761 1.420420 -0.069405
H 1.889961 1.270466 -1.067775
9
Time step 1583
C -1.080947 -0.025639 -0.319468
F -1.135897 0.151501 -1.659590
F -1.463119 1.085748 0.419240
F -1.819871 -1.098313 0.166410
S 0.987583 -0.194267 0.233948
O 0.738138 -0.261919 1.717388
O 1.939921 -0.996229 -0.533154
O 1.288599 1.420441 -0.069746
H 1.886973 1.273367 -1.060862
9
Time step 1584
C -1.079437 -0.025995 -0.319585
F -1.135726 0.151477 -1.660153
F -1.464125 1.086746 0.419736
F -1.820384 -1.098930 0.166405
S 0.988045 -0.194084 0.234414
O 0.738977 -0.262082 1.716207
O 1.938975 -0.996788 -0.532824
O 1.288451 1.420451 -0.070113
H 1.883778 1.276381 -1.053587
9
Time step 1585
C -1.077919 -0.026351 -0.319690
F -1.135558 0.151451 -1.660707
F -1.465128 1.087734 0.420223
F -1.820890 -1.099537 0.166391
S 0.988498 -0.193896 0.234891
O 0.739823 -0.262248 1.715011
O 1.938025 -0.997346 -0.532495
O 1.288318 1.420451 -0.070506
H 1.880383 1.279502 -1.045960
9
Time step 1586
C -1.076392 -0.026709 -0.319783
F -1.135394 0.151423 -1.661250
F -1.466129 1.088712 0.420699
F -1.821388 -1.100134 0.166370
S 0.988940 -0.193705 0.235377
O 0.740677 -0.262417 1.713802
O 1.937073 -0.997905 -0.532166
O 1.288199 1.420439 -0.070924
H 1.876792 1.282728 -1.037990
9
Time step 1587
C -1.074855 -0.027067 -0.319867
F -1.135234 0.151395 -1.661784
F -1.467129 1.089680 0.421166
F -1.821879 -1.100720 0.166340
S 0.989373 -0.193510 0.235874
O 0.741537 -0.262587 1.712579
O 1.936119 -0.998464 -0.531838
O 1.288094 1.420418 -0.071367
H 1.873010 1.286052 -1.029689
9
Time step 1588
C -1.073310 -0.027426 -0.319940
F -1.135078 0.151365 -1.662307
F -1.468125 1.090637 0.421622
F -1.822363 -1.101295 0.166303
S 0.989795 -0.193311 0.236380
O 0.742404 -0.262760 1.711342
O 1.935162 -0.999022 -0.531510
O 1.288003 1.420386 -0.071834
H 1.869043 1.289474 -1.021069
9
Time step 1589
C -1.071759 -0.027784 -0.320002
F -1.134926 0.151335 -1.662821
F -1.469119 1.091584 0.422068
F -1.822838 -1.101859 0.166258
S 0.990208 -0.193108 0.236894
O 0.743276 -0.262936 1.710093
O 1.934203 -0.999579 -0.531182
O 1.287926 1.420344 -0.072325
H 1.864896 1.292990 -1.012140
9
Time step 1590
C -1.070204 -0.028142 -0.320050
F -1.134777 0.151304 -1.663324
F -1.470109 1.092520 0.422504
F -1.823305 -1.102414 0.166204
S 0.990611 -0.192902 0.237417
O 0.744154 -0.263114 1.708832
O 1.933243 -1.000136 -0.530854
O 1.287862 1.420292 -0.072838
H 1.860576 1.296601 -1.002915
9
Time step 1591
C -1.068646 -0.028502 -0.320084
F -1.134631 0.151271 -1.663817
F -1.471094 1.093446 0.422930
F -1.823764 -1.102958 0.166142
S 0.991004 -0.192691 0.237947
O 0.745038 -0.263296 1.707560
O 1.932281 -1.000694 -0.530526
O 1.287811 1.420231 -0.073374
H 1.856089 1.300307 -0.993407
9
Time step 1592
C -1.067088 -0.028863 -0.320102
F -1.134488 0.151237 -1.664301
F -1.472076 1.094361 0.423345
F -1.824213 -1.103491 0.166071
S 0.991386 -0.192476 0.238486
O 0.745927 -0.263481 1.706275
O 1.931317 -1.001251 -0.530197
O 1.287774 1.420161 -0.073931
H 1.851443 1.304108 -0.983631
9
Time step 1593
C -1.065528 -0.029225 -0.320103
F -1.134347 0.151202 -1.664775
F -1.473053 1.095266 0.423749
F -1.824653 -1.104013 0.165991
S 0.991758 -0.192256 0.239032
O 0.746822 -0.263670 1.704980
O 1.930353 -1.001810 -0.529869
O 1.287749 1.420082 -0.074507
H 1.846648 1.308005 -0.973607
9
Time step 1594
C -1.063968 -0.029588 -0.320089
F -1.134210 0.151164 -1.665239
F -1.474026 1.096160 0.424143
F -1.825083 -1.104523 0.165901
S 0.992118 -0.192031 0.239587
O 0.747724 -0.263862 1.703672
O 1.929388 -1.002371 -0.529541
O 1.287736 1.419996 -0.075103
H 1.841717 1.311994 -0.963354
9
Time step 1595
C -1.062408 -0.029952 -0.320060
F -1.134076 0.151125 -1.665693
F -1.474996 1.097042 0.424526
F -1.825504 -1.105021 0.165801
S 0.992467 -0.191802 0.240150
O 0.748633 -0.264056 1.702354
O 1.928422 -1.002933 -0.529214
O 1.287734 1.419901 -0.075714
H 1.836666 1.316072 -0.952898
9
Time step 1596
C -1.060849 -0.030314 -0.320019
F -1.133944 0.151084 -1.666137
F -1.475962 1.097913 0.424898
F -1.825914 -1.105508 0.165693
S 0.992805 -0.191569 0.240721
O 0.749548 -0.264253 1.701025
O 1.927456 -1.003498 -0.528889
O 1.287743 1.419800 -0.076340
H 1.831514 1.320233 -0.942268
9
Time step 1597
C -1.059291 -0.030675 -0.319966
F -1.133814 0.151042 -1.666570
F -1.476923 1.098770 0.425259
F -1.826314 -1.105983 0.165577
S 0.993132 -0.191333 0.241301
O 0.750470 -0.264451 1.699686
O 1.926488 -1.004064 -0.528565
O 1.287760 1.419691 -0.076978
H 1.826286 1.324469 -0.931496
9
Time step 1598
C -1.057736 -0.031032 -0.319902
F -1.133685 0.150999 -1.666992
F -1.477880 1.099615 0.425609
F -1.826705 -1.106448 0.165453
S 0.993447 -0.191093 0.241888
O 0.751398 -0.264651 1.698338
O 1.925520 -1.004630 -0.528244
O 1.287783 1.419575 -0.077626
H 1.821005 1.328773 -0.920621
9
Time step 1599
C -1.056184 -0.031387 -0.319824
F -1.133558 0.150955 -1.667403
F -1.478832 1.100446 0.425947
F -1.827086 -1.106903 0.165322
S 0.993752 -0.190849 0.242482
O 0.752332 -0.264852 1.696983
O 1.924550 -1.005197 -0.527925
O 1.287812 1.419452 -0.078281
H 1.815701 1.333136 -0.909680
9
Time step 1600
C -1.054633 -0.031740 -0.319733
F -1.133432 0.150910 -1.667804
F -1.479780 1.101265 0.426273
F -1.827458 -1.107347 0.165183
S 0.994047 -0.190602 0.243081
O 0.753272 -0.265055 1.695621
O 1.923577 -1.005764 -0.527608
O 1.287844 1.419322 -0.078940
H 1.810401 1.337553 -0.898717
9
Time step 1601
C -1.053082 -0.032090 -0.319629
F -1.133309 0.150863 -1.668195
F -1.480722 1.102071 0.426587
F -1.827821 -1.107781 0.165037
S 0.994332 -0.190350 0.243687
O 0.754217 -0.265260 1.694254
O 1.922603 -1.006331 -0.527292
O 1.287877 1.419186 -0.079601
H 1.805134 1.342018 -0.887779
9
Time step 1602
C -1.051531 -0.032440 -0.319510
F -1.133189 0.150816 -1.668576
F -1.481660 1.102864 0.426889
F -1.828175 -1.108203 0.164882
S 0.994607 -0.190095 0.244298
O 0.755167 -0.265467 1.692881
O 1.921626 -1.006896 -0.526978
O 1.287908 1.419043 -0.080260
H 1.799931 1.346527 -0.876915
9
Time step 1603
C -1.049981 -0.032788 -0.319377
F -1.133071 0.150766 -1.668946
F -1.482592 1.103646 0.427180
F -1.828520 -1.108615 0.164718
S 0.994873 -0.189836 0.244914
O 0.756122 -0.265677 1.691503
O 1.920647 -1.007461 -0.526665
O 1.287937 1.418893 -0.080913
H 1.794823 1.351078 -0.866180
9
Time step 1604
C -1.048433 -0.033135 -0.319232
F -1.132957 0.150715 -1.669306
F -1.483519 1.104415 0.427459
F -1.828856 -1.109016 0.164547
S 0.995130 -0.189573 0.245535
O 0.757083 -0.265890 1.690120
O 1.919665 -1.008025 -0.526353
O 1.287960 1.418738 -0.081558
H 1.789844 1.355668 -0.855630
9
Time step 1605
C -1.046889 -0.033481 -0.319075
F -1.132844 0.150663 -1.669654
F -1.484439 1.105173 0.427726
F -1.829181 -1.109405 0.164367
S 0.995377 -0.189308 0.246160
O 0.758050 -0.266105 1.688732
O 1.918681 -1.008587 -0.526040
O 1.287976 1.418577 -0.082189
H 1.785032 1.360293 -0.845328
9
Time step 1606
C -1.045352 -0.033824 -0.318906
F -1.132732 0.150608 -1.669992
F -1.485354 1.105919 0.427981
F -1.829496 -1.109784 0.164180
S 0.995613 -0.189039 0.246789
O 0.759022 -0.266322 1.687340
O 1.917695 -1.009147 -0.525728
O 1.287981 1.418411 -0.082802
H 1.780428 1.364952 -0.835341
9
Time step 1607
C -1.043823 -0.034165 -0.318725
F -1.132622 0.150552 -1.670318
F -1.486262 1.106653 0.428225
F -1.829801 -1.110153 0.163985
S 0.995840 -0.188768 0.247421
O 0.760000 -0.266542 1.685945
O 1.916707 -1.009706 -0.525415
O 1.287974 1.418240 -0.083394
H 1.776075 1.369641 -0.825739
9
Time step 1608
C -1.042300 -0.034504 -0.318533
F -1.132511 0.150495 -1.670633
F -1.487165 1.107373 0.428457
F -1.830095 -1.110509 0.163783
S 0.996056 -0.188493 0.248056
O 0.760984 -0.266765 1.684546
O 1.915718 -1.010263 -0.525102
O 1.287951 1.418064 -0.083960
H 1.772020 1.374356 -0.816594
9
Time step 1609
C -1.040783 -0.034841 -0.318328
F -1.132402 0.150436 -1.670937
F -1.488062 1.108081 0.428678
F -1.830379 -1.110853 0.163573
S 0.996262 -0.188216 0.248693
O 0.761972 -0.266990 1.683145
O 1.914727 -1.010818 -0.524788
O 1.287910 1.417883 -0.084496
H 1.768312 1.379094 -0.807977
9
Time step 1610
C -1.039269 -0.035178 -0.318113
F -1.132294 0.150376 -1.671227
F -1.488954 1.108775 0.428888
F -1.830653 -1.111185 0.163355
S 0.996458 -0.187935 0.249332
O 0.762965 -0.267219 1.681743
O 1.913735 -1.011371 -0.524474
O 1.287848 1.417697 -0.084998
H 1.764999 1.383855 -0.799958
9
Time step 1611
C -1.037757 -0.035514 -0.317888
F -1.132188 0.150314 -1.671505
F -1.489842 1.109455 0.429087
F -1.830916 -1.111503 0.163129
S 0.996643 -0.187651 0.249974
O 0.763962 -0.267449 1.680339
O 1.912741 -1.011923 -0.524159
O 1.287761 1.417506 -0.085460
H 1.762127 1.388635 -0.792604
9
Time step 1612
C -1.036249 -0.035850 -0.317653
F -1.132084 0.150251 -1.671770
F -1.490724 1.110121 0.429275
F -1.831168 -1.111807 0.162894
S 0.996819 -0.187362 0.250617
O 0.764963 -0.267682 1.678935
O 1.911746 -1.012475 -0.523845
O 1.287647 1.417309 -0.085880
H 1.759739 1.393437 -0.785974
9
Time step 1613
C -1.034744 -0.036185 -0.317408
F -1.131982 0.150186 -1.672022
F -1.491601 1.110773 0.429452
F -1.831410 -1.112099 0.162651
S 0.996984 -0.187069 0.251262
O 0.765969 -0.267918 1.677531
O 1.910750 -1.013027 -0.523531
O 1.287504 1.417108 -0.086254
H 1.757876 1.398262 -0.780123
9
Time step 1614
C -1.033246 -0.036520 -0.317153
F -1.131882 0.150120 -1.672261
F -1.492473 1.111411 0.429618
F -1.831641 -1.112378 0.162398
S 0.997140 -0.186772 0.251908
O 0.766979 -0.268155 1.676128
O 1.909752 -1.013580 -0.523218
O 1.287329 1.416901 -0.086578
H 1.756574 1.403112 -0.775095
9
Time step 1615
C -1.031755 -0.036853 -0.316886
F -1.131783 0.150052 -1.672486
F -1.493338 1.112036 0.429773
F -1.831860 -1.112645 0.162137
S 0.997286 -0.186470 0.252555
O 0.767994 -0.268395 1.674727
O 1.908753 -1.014134 -0.522905
O 1.287119 1.416689 -0.086851
H 1.755864 1.407992 -0.770928
9
Time step 1616
C -1.030275 -0.037184 -0.316606
F -1.131685 0.149983 -1.672700
F -1.494198 1.112646 0.429916
F -1.832068 -1.112900 0.161865
S 0.997422 -0.186163 0.253203
O 0.769014 -0.268637 1.673329
O 1.907753 -1.014689 -0.522593
O 1.286874 1.416470 -0.087070
H 1.755774 1.412906 -0.767654
9
Time step 1617
C -1.028803 -0.037512 -0.316315
F -1.131588 0.149911 -1.672901
F -1.495051 1.113243 0.430047
F -1.832265 -1.113143 0.161585
S 0.997548 -0.185850 0.253851
O 0.770040 -0.268882 1.671934
O 1.906751 -1.015246 -0.522281
O 1.286591 1.416246 -0.087234
H 1.756327 1.417857 -0.765292
9
Time step 1618
C -1.027341 -0.037837 -0.316011
F -1.131493 0.149838 -1.673089
F -1.495899 1.113825 0.430166
F -1.832450 -1.113374 0.161295
S 0.997665 -0.185532 0.254499
O 0.771070 -0.269130 1.670544
O 1.905748 -1.015803 -0.521972
O 1.286271 1.416015 -0.087341
H 1.757537 1.422851 -0.763856
9
Time step 1619
C -1.025889 -0.038156 -0.315697
F -1.131400 0.149763 -1.673266
F -1.496739 1.114391 0.430274
F -1.832623 -1.113592 0.160997
S 0.997772 -0.185209 0.255148
O 0.772105 -0.269381 1.669160
O 1.904743 -1.016362 -0.521663
O 1.285912 1.415778 -0.087393
H 1.759412 1.427890 -0.763350
9
Time step 1620
C -1.024448 -0.038468 -0.315374
F -1.131309 0.149684 -1.673430
F -1.497573 1.114942 0.430370
F -1.832785 -1.113798 0.160690
S 0.997870 -0.184881 0.255797
O 0.773144 -0.269635 1.667781
O 1.903738 -1.016922 -0.521357
O 1.285516 1.415534 -0.087388
H 1.761952 1.432978 -0.763766
9
Time step 1621
C -1.023018 -0.038773 -0.315042
F -1.131218 0.149603 -1.673581
F -1.498399 1.115476 0.430454
F -1.832934 -1.113992 0.160376
S 0.997958 -0.184549 0.256445
O 0.774186 -0.269892 1.666409
O 1.902732 -1.017483 -0.521054
O 1.285081 1.415282 -0.087328
H 1.765144 1.438118 -0.765089
9
Time step 1622
C -1.021599 -0.039070 -0.314700
F -1.131129 0.149520 -1.673720
F -1.499218 1.115995 0.430527
F -1.833071 -1.114175 0.160053
S 0.998036 -0.184212 0.257092
O 0.775231 -0.270150 1.665045
O 1.901724 -1.018044 -0.520752
O 1.284610 1.415025 -0.087215
H 1.768968 1.443310 -0.767288
9
Time step 1623
C -1.020193 -0.039358 -0.314346
F -1.131040 0.149434 -1.673847
F -1.500029 1.116498 0.430588
F -1.833195 -1.114346 0.159722
S 0.998106 -0.183871 0.257736
O 0.776279 -0.270411 1.663690
O 1.900715 -1.018605 -0.520452
O 1.284103 1.414760 -0.087050
H 1.773395 1.448555 -0.770326
9
Time step 1624
C -1.018797 -0.039640 -0.313977
F -1.130952 0.149346 -1.673962
F -1.500833 1.116986 0.430636
F -1.833309 -1.114506 0.159383
S 0.998168 -0.183528 0.258375
O 0.777329 -0.270673 1.662346
O 1.899705 -1.019165 -0.520154
O 1.283563 1.414489 -0.086836
H 1.778387 1.453852 -0.774151
9
Time step 1625
C -1.017410 -0.039916 -0.313593
F -1.130865 0.149256 -1.674066
F -1.501630 1.117460 0.430672
F -1.833411 -1.114655 0.159035
S 0.998222 -0.183181 0.259010
O 0.778381 -0.270939 1.661014
O 1.898693 -1.019725 -0.519856
O 1.282992 1.414212 -0.086578
H 1.783903 1.459200 -0.778708
9
Time step 1626
C -1.016031 -0.040186 -0.313193
F -1.130778 0.149164 -1.674156
F -1.502421 1.117919 0.430695
F -1.833502 -1.114792 0.158678
S 0.998268 -0.182832 0.259638
O 0.779435 -0.271207 1.659695
O 1.897679 -1.020283 -0.519559
O 1.282393 1.413928 -0.086279
H 1.789897 1.464599 -0.783930
9
Time step 1627
C -1.014660 -0.040453 -0.312779
F -1.130692 0.149071 -1.674234
F -1.503206 1.118366 0.430705
F -1.833582 -1.114917 0.158313
S 0.998306 -0.182480 0.260260
O 0.780491 -0.271478 1.658390
O 1.896662 -1.020839 -0.519260
O 1.281769 1.413639 -0.085944
H 1.796322 1.470044 -0.789752
9
Time step 1628
C -1.013298 -0.040717 -0.312354
F -1.130607 0.148975 -1.674298
F -1.503984 1.118798 0.430703
F -1.833651 -1.115030 0.157940
S 0.998336 -0.182125 0.260873
O 0.781550 -0.271753 1.657099
O 1.895643 -1.021394 -0.518962
O 1.281123 1.413344 -0.085576
H 1.803130 1.475534 -0.796104
9
Time step 1629
C -1.011948 -0.040977 -0.311922
F -1.130522 0.148879 -1.674348
F -1.504755 1.119217 0.430689
F -1.833707 -1.115132 0.157560
S 0.998359 -0.181766 0.261480
O 0.782610 -0.272030 1.655822
O 1.894622 -1.021946 -0.518662
O 1.280456 1.413043 -0.085179
H 1.810276 1.481063 -0.802917
9
Time step 1630
C -1.010611 -0.041234 -0.311483
F -1.130436 0.148780 -1.674383
F -1.505518 1.119622 0.430664
F -1.833750 -1.115221 0.157172
S 0.998373 -0.181405 0.262079
O 0.783671 -0.272311 1.654560
O 1.893600 -1.022497 -0.518362
O 1.279773 1.412738 -0.084758
H 1.817712 1.486626 -0.810124
9
Time step 1631
C -1.009290 -0.041488 -0.311039
F -1.130350 0.148679 -1.674402
F -1.506272 1.120013 0.430627
F -1.833780 -1.115298 0.156777
S 0.998379 -0.181041 0.262672
O 0.784735 -0.272595 1.653313
O 1.892575 -1.023047 -0.518063
O 1.279076 1.412427 -0.084317
H 1.825395 1.492216 -0.817659
9
Time step 1632
C -1.007984 -0.041738 -0.310588
F -1.130263 0.148577 -1.674407
F -1.507019 1.120390 0.430579
F -1.833797 -1.115362 0.156375
S 0.998377 -0.180674 0.263257
O 0.785800 -0.272880 1.652081
O 1.891550 -1.023596 -0.517763
O 1.278367 1.412112 -0.083859
H 1.833280 1.497825 -0.825460
9
Time step 1633
C -1.006693 -0.041985 -0.310130
F -1.130176 0.148473 -1.674397
F -1.507757 1.120752 0.430519
F -1.833800 -1.115413 0.155965
S 0.998366 -0.180304 0.263835
O 0.786868 -0.273167 1.650864
O 1.890524 -1.024145 -0.517465
O 1.277650 1.411793 -0.083389
H 1.841323 1.503446 -0.833464
9
Time step 1634
C -1.005416 -0.042230 -0.309663
F -1.130089 0.148368 -1.674373
F -1.508489 1.121100 0.430447
F -1.833791 -1.115451 0.155546
S 0.998348 -0.179930 0.264406
O 0.787937 -0.273457 1.649665
O 1.889497 -1.024694 -0.517169
O 1.276927 1.411471 -0.082910
H 1.849483 1.509069 -0.841613
9
Time step 1635
C -1.004153 -0.042472 -0.309187
F -1.130003 0.148261 -1.674333
F -1.509213 1.121433 0.430363
F -1.833769 -1.115474 0.155118
S 0.998322 -0.179553 0.264968
O 0.789009 -0.273748 1.648483
O 1.888470 -1.025242 -0.516874
O 1.276200 1.411145 -0.082424
H 1.857717 1.514684 -0.849851
9
Time step 1636
C -1.002904 -0.042712 -0.308702
F -1.129917 0.148151 -1.674278
F -1.509931 1.121750 0.430267
F -1.833734 -1.115484 0.154682
S 0.998289 -0.179173 0.265521
O 0.790082 -0.274041 1.647320
O 1.887440 -1.025790 -0.516581
O 1.275472 1.410817 -0.081935
H 1.865986 1.520284 -0.858126
9
Time step 1637
C -1.001670 -0.042950 -0.308210
F -1.129830 0.148041 -1.674209
F -1.510640 1.122053 0.430158
F -1.833687 -1.115481 0.154238
S 0.998248 -0.178789 0.266065
O 0.791158 -0.274336 1.646177
O 1.886409 -1.026337 -0.516289
O 1.274746 1.410485 -0.081447
H 1.874253 1.525858 -0.866389
9
Time step 1638
C -1.000453 -0.043184 -0.307712
F -1.129743 0.147928 -1.674126
F -1.511342 1.122341 0.430038
F -1.833627 -1.115465 0.153787
S 0.998201 -0.178401 0.266599
O 0.792235 -0.274633 1.645057
O 1.885376 -1.026882 -0.515999
O 1.274023 1.410152 -0.080960
H 1.882483 1.531397 -0.874598
9
Time step 1639
C -0.999252 -0.043412 -0.307207
F -1.129654 0.147813 -1.674029
F -1.512034 1.122613 0.429906
F -1.833554 -1.115437 0.153329
S 0.998146 -0.178009 0.267122
O 0.793313 -0.274932 1.643959
O 1.884340 -1.027426 -0.515710
O 1.273305 1.409817 -0.080478
H 1.890644 1.536892 -0.882718
9
Time step 1640
C -0.998068 -0.043634 -0.306695
F -1.129565 0.147696 -1.673918
F -1.512718 1.122870 0.429762
F -1.833469 -1.115397 0.152864
S 0.998086 -0.177614 0.267633
O 0.794394 -0.275234 1.642886
O 1.883301 -1.027968 -0.515423
O 1.272594 1.409481 -0.080002
H 1.898708 1.542332 -0.890717
9
Time step 1641
C -0.996898 -0.043848 -0.306175
F -1.129475 0.147577 -1.673795
F -1.513394 1.123112 0.429607
F -1.833372 -1.115346 0.152391
S 0.998019 -0.177215 0.268133
O 0.795475 -0.275538 1.641837
O 1.882259 -1.028510 -0.515136
O 1.271891 1.409145 -0.079535
H 1.906649 1.547710 -0.898567
9
Time step 1642
C -0.995741 -0.044054 -0.305646
F -1.129386 0.147456 -1.673660
F -1.514062 1.123338 0.429440
F -1.833264 -1.115284 0.151911
S 0.997946 -0.176812 0.268620
O 0.796558 -0.275845 1.640815
O 1.881215 -1.029050 -0.514851
O 1.271198 1.408809 -0.079077
H 1.914446 1.553018 -0.906243
9
Time step 1643
C -0.994596 -0.044252 -0.305109
F -1.129296 0.147332 -1.673511
F -1.514722 1.123548 0.429261
F -1.833144 -1.115211 0.151423
S 0.997866 -0.176406 0.269094
O 0.797640 -0.276155 1.639819
O 1.880168 -1.029589 -0.514566
O 1.270517 1.408474 -0.078631
H 1.922077 1.558252 -0.913724
9
Time step 1644
C -0.993465 -0.044440 -0.304565
F -1.129206 0.147205 -1.673349
F -1.515375 1.123741 0.429071
F -1.833013 -1.115126 0.150929
S 0.997781 -0.175995 0.269554
O 0.798723 -0.276468 1.638851
O 1.879119 -1.030127 -0.514282
O 1.269848 1.408142 -0.078197
H 1.929526 1.563407 -0.920986
9
Time step 1645
C -0.992349 -0.044620 -0.304015
F -1.129116 0.147077 -1.673173
F -1.516019 1.123918 0.428869
F -1.832870 -1.115029 0.150428
S 0.997689 -0.175582 0.270000
O 0.799806 -0.276784 1.637912
O 1.878068 -1.030665 -0.513998
O 1.269194 1.407811 -0.077776
H 1.936775 1.568481 -0.928009
9
Time step 1646
C -0.991251 -0.044792 -0.303461
F -1.129025 0.146945 -1.672982
F -1.516654 1.124079 0.428656
F -1.832714 -1.114920 0.149920
S 0.997592 -0.175164 0.270430
O 0.800888 -0.277103 1.637003
O 1.877014 -1.031202 -0.513715
O 1.268554 1.407484 -0.077371
H 1.943810 1.573470 -0.934773
9
Time step 1647
C -0.990172 -0.044958 -0.302901
F -1.128932 0.146811 -1.672776
F -1.517280 1.124225 0.428432
F -1.832545 -1.114800 0.149406
S 0.997489 -0.174743 0.270844
O 0.801969 -0.277426 1.636125
O 1.875959 -1.031738 -0.513432
O 1.267930 1.407160 -0.076982
H 1.950617 1.578373 -0.941261
9
Time step 1648
C -0.989112 -0.045116 -0.302336
F -1.128839 0.146675 -1.672556
F -1.517897 1.124356 0.428197
F -1.832363 -1.114667 0.148884
S 0.997380 -0.174319 0.271241
O 0.803048 -0.277752 1.635279
O 1.874900 -1.032273 -0.513148
O 1.267321 1.406840 -0.076609
H 1.957184 1.583183 -0.947456
9
Time step 1649
C -0.988069 -0.045270 -0.301763
F -1.128744 0.146535 -1.672321
F -1.518505 1.124472 0.427951
F -1.832167 -1.114523 0.148354
S 0.997267 -0.173892 0.271621
O 0.804127 -0.278082 1.634465
O 1.873839 -1.032808 -0.512864
O 1.266728 1.406524 -0.076255
H 1.963500 1.587897 -0.953348
9
Time step 1650
C -0.987042 -0.045420 -0.301180
F -1.128649 0.146394 -1.672071
F -1.519105 1.124574 0.427693
F -1.831959 -1.114365 0.147815
S 0.997148 -0.173462 0.271983
O 0.805205 -0.278415 1.633684
O 1.872775 -1.033341 -0.512579
O 1.266151 1.406212 -0.075918
H 1.969556 1.592508 -0.958925
9
Time step 1651
C -0.986028 -0.045567 -0.300588
F -1.128555 0.146250 -1.671807
F -1.519697 1.124662 0.427423
F -1.831739 -1.114195 0.147268
S 0.997026 -0.173029 0.272328
O 0.806281 -0.278751 1.632935
O 1.871708 -1.033873 -0.512294
O 1.265591 1.405905 -0.075601
H 1.975345 1.597010 -0.964179
9
Time step 1652
C -0.985029 -0.045710 -0.299987
F -1.128460 0.146105 -1.671528
F -1.520281 1.124736 0.427143
F -1.831505 -1.114011 0.146713
S 0.996898 -0.172592 0.272654
O 0.807357 -0.279090 1.632219
O 1.870638 -1.034405 -0.512007
O 1.265046 1.405601 -0.075302
H 1.980861 1.601398 -0.969103
9
Time step 1653
C -0.984048 -0.045849 -0.299379
F -1.128365 0.145957 -1.671236
F -1.520857 1.124794 0.426851
F -1.831259 -1.113816 0.146150
S 0.996766 -0.172152 0.272964
O 0.808431 -0.279432 1.631535
O 1.869566 -1.034937 -0.511721
O 1.264520 1.405302 -0.075022
H 1.986101 1.605665 -0.973688
9
Time step 1654
C -0.983087 -0.045984 -0.298767
F -1.128269 0.145809 -1.670930
F -1.521424 1.124838 0.426549
F -1.830999 -1.113608 0.145580
S 0.996630 -0.171707 0.273256
O 0.809505 -0.279777 1.630885
O 1.868492 -1.035467 -0.511435
O 1.264011 1.405006 -0.074763
H 1.991064 1.609808 -0.977929
9
Time step 1655
C -0.982148 -0.046112 -0.298152
F -1.128172 0.145657 -1.670609
F -1.521982 1.124867 0.426237
F -1.830724 -1.113389 0.145004
S 0.996487 -0.171257 0.273531
O 0.810576 -0.280126 1.630269
O 1.867416 -1.035997 -0.511151
O 1.263521 1.404714 -0.074523
H 1.995747 1.613824 -0.981821
9
Time step 1656
C -0.981234 -0.046233 -0.297534
F -1.128074 0.145504 -1.670275
F -1.522530 1.124880 0.425914
F -1.830435 -1.113158 0.144421
S 0.996340 -0.170804 0.273790
O 0.811647 -0.280477 1.629689
O 1.866338 -1.036525 -0.510868
O 1.263051 1.404426 -0.074304
H 2.000150 1.617710 -0.985360
9
Time step 1657
C -0.980341 -0.046347 -0.296913
F -1.127975 0.145347 -1.669925
F -1.523069 1.124878 0.425580
F -1.830132 -1.112915 0.143831
S 0.996186 -0.170346 0.274031
O 0.812717 -0.280832 1.629146
O 1.865259 -1.037053 -0.510588
O 1.262599 1.404142 -0.074107
H 2.004271 1.621464 -0.988544
9
Time step 1658
C -0.979468 -0.046453 -0.296287
F -1.127874 0.145188 -1.669560
F -1.523599 1.124860 0.425235
F -1.829814 -1.112659 0.143233
S 0.996027 -0.169885 0.274253
O 0.813785 -0.281190 1.628641
O 1.864178 -1.037579 -0.510310
O 1.262167 1.403863 -0.073930
H 2.008110 1.625082 -0.991370
9
Time step 1659
C -0.978613 -0.046553 -0.295655
F -1.127773 0.145026 -1.669180
F -1.524121 1.124826 0.424878
F -1.829483 -1.112390 0.142628
S 0.995861 -0.169420 0.274457
O 0.814853 -0.281552 1.628175
O 1.863096 -1.038103 -0.510034
O 1.261754 1.403590 -0.073775
H 2.011664 1.628563 -0.993838
9
Time step 1660
C -0.977776 -0.046647 -0.295018
F -1.127671 0.144862 -1.668783
F -1.524635 1.124776 0.424509
F -1.829138 -1.112107 0.142015
S 0.995690 -0.168953 0.274641
O 0.815920 -0.281917 1.627749
O 1.862011 -1.038627 -0.509761
O 1.261359 1.403323 -0.073640
H 2.014929 1.631904 -0.995945
9
Time step 1661
C -0.976957 -0.046736 -0.294375
F -1.127567 0.144695 -1.668370
F -1.525141 1.124711 0.424127
F -1.828780 -1.111812 0.141396
S 0.995514 -0.168484 0.274806
O 0.816987 -0.282286 1.627361
O 1.860924 -1.039149 -0.509489
O 1.260983 1.403065 -0.073526
H 2.017901 1.635102 -0.997690
9
Time step 1662
C -0.976160 -0.046820 -0.293730
F -1.127459 0.144528 -1.667942
F -1.525639 1.124630 0.423734
F -1.828409 -1.111505 0.140771
S 0.995332 -0.168011 0.274949
O 0.818053 -0.282657 1.627013
O 1.859834 -1.039670 -0.509218
O 1.260626 1.402814 -0.073432
H 2.020577 1.638154 -0.999069
9
Time step 1663
C -0.975386 -0.046897 -0.293082
F -1.127348 0.144358 -1.667498
F -1.526127 1.124534 0.423328
F -1.828025 -1.111186 0.140142
S 0.995146 -0.167536 0.275072
O 0.819118 -0.283032 1.626705
O 1.858740 -1.040189 -0.508948
O 1.260288 1.402571 -0.073359
H 2.022951 1.641059 -1.000080
9
Time step 1664
C -0.974635 -0.046968 -0.292432
F -1.127234 0.144188 -1.667040
F -1.526607 1.124423 0.422911
F -1.827629 -1.110858 0.139507
S 0.994957 -0.167059 0.275174
O 0.820182 -0.283411 1.626436
O 1.857643 -1.040708 -0.508680
O 1.259969 1.402337 -0.073305
H 2.025020 1.643813 -1.000719
9
Time step 1665
C -0.973908 -0.047030 -0.291779
F -1.127117 0.144014 -1.666567
F -1.527076 1.124298 0.422484
F -1.827220 -1.110520 0.138867
S 0.994764 -0.166578 0.275255
O 0.821244 -0.283793 1.626208
O 1.856543 -1.041225 -0.508413
O 1.259669 1.402110 -0.073273
H 2.026780 1.646414 -1.000986
9
Time step 1666
C -0.973201 -0.047081 -0.291123
F -1.126999 0.143839 -1.666080
F -1.527537 1.124159 0.422045
F -1.826799 -1.110172 0.138221
S 0.994568 -0.166095 0.275317
O 0.822303 -0.284179 1.626020
O 1.855440 -1.041740 -0.508146
O 1.259389 1.401891 -0.073263
H 2.028230 1.648861 -1.000879
9
Time step 1667
C -0.972512 -0.047122 -0.290464
F -1.126879 0.143660 -1.665578
F -1.527988 1.124005 0.421596
F -1.826366 -1.109814 0.137568
S 0.994369 -0.165610 0.275358
O 0.823361 -0.284569 1.625872
O 1.854335 -1.042253 -0.507882
O 1.259126 1.401681 -0.073276
H 2.029368 1.651150 -1.000398
9
Time step 1668
C -0.971839 -0.047152 -0.289802
F -1.126759 0.143480 -1.665062
F -1.528430 1.123836 0.421136
F -1.825921 -1.109446 0.136910
S 0.994166 -0.165123 0.275380
O 0.824416 -0.284963 1.625764
O 1.853226 -1.042764 -0.507618
O 1.258883 1.401479 -0.073311
H 2.030195 1.653280 -0.999546
9
Time step 1669
C -0.971182 -0.047171 -0.289139
F -1.126638 0.143297 -1.664530
F -1.528864 1.123652 0.420665
F -1.825464 -1.109067 0.136245
S 0.993958 -0.164634 0.275384
O 0.825470 -0.285362 1.625697
O 1.852116 -1.043273 -0.507356
O 1.258657 1.401285 -0.073368
H 2.030711 1.655249 -0.998323
9
Time step 1670
C -0.970544 -0.047182 -0.288474
F -1.126515 0.143112 -1.663984
F -1.529288 1.123453 0.420184
F -1.824994 -1.108678 0.135574
S 0.993746 -0.164143 0.275368
O 0.826522 -0.285763 1.625669
O 1.851004 -1.043781 -0.507096
O 1.258451 1.401101 -0.073449
H 2.030916 1.657057 -0.996732
9
Time step 1671
C -0.969927 -0.047184 -0.287809
F -1.126390 0.142926 -1.663424
F -1.529703 1.123239 0.419692
F -1.824511 -1.108278 0.134899
S 0.993529 -0.163651 0.275333
O 0.827572 -0.286168 1.625680
O 1.849889 -1.044287 -0.506837
O 1.258263 1.400927 -0.073551
H 2.030810 1.658703 -0.994773
9
Time step 1672
C -0.969331 -0.047180 -0.287143
F -1.126262 0.142738 -1.662849
F -1.530108 1.123011 0.419190
F -1.824014 -1.107867 0.134218
S 0.993306 -0.163158 0.275278
O 0.828620 -0.286575 1.625731
O 1.848773 -1.044791 -0.506580
O 1.258094 1.400762 -0.073674
H 2.030393 1.660188 -0.992448
9
Time step 1673
C -0.968757 -0.047169 -0.286474
F -1.126132 0.142549 -1.662260
F -1.530504 1.122767 0.418679
F -1.823504 -1.107445 0.133532
S 0.993079 -0.162663 0.275203
O 0.829667 -0.286985 1.625822
O 1.847655 -1.045294 -0.506325
O 1.257945 1.400607 -0.073818
H 2.029664 1.661512 -0.989759
9
Time step 1674
C -0.968205 -0.047152 -0.285801
F -1.126000 0.142357 -1.661657
F -1.530890 1.122508 0.418157
F -1.822981 -1.107012 0.132840
S 0.992847 -0.162167 0.275107
O 0.830711 -0.287396 1.625953
O 1.846535 -1.045796 -0.506071
O 1.257817 1.400461 -0.073983
H 2.028624 1.662675 -0.986706
9
Time step 1675
C -0.967674 -0.047128 -0.285122
F -1.125865 0.142164 -1.661041
F -1.531266 1.122235 0.417626
F -1.822445 -1.106567 0.132141
S 0.992610 -0.161669 0.274991
O 0.831753 -0.287809 1.626124
O 1.845412 -1.046295 -0.505819
O 1.257708 1.400325 -0.074169
H 2.027273 1.663678 -0.983294
9
Time step 1676
C -0.967165 -0.047098 -0.284438
F -1.125730 0.141969 -1.660412
F -1.531633 1.121946 0.417085
F -1.821896 -1.106111 0.131435
S 0.992369 -0.161169 0.274853
O 0.832793 -0.288225 1.626336
O 1.844288 -1.046794 -0.505567
O 1.257619 1.400197 -0.074375
H 2.025613 1.664520 -0.979523
9
Time step 1677
C -0.966678 -0.047062 -0.283748
F -1.125592 0.141771 -1.659769
F -1.531990 1.121642 0.416535
F -1.821333 -1.105643 0.130722
S 0.992123 -0.160667 0.274694
O 0.833831 -0.288644 1.626590
O 1.843161 -1.047290 -0.505316
O 1.257550 1.400079 -0.074602
H 2.023645 1.665199 -0.975400
9
Time step 1678
C -0.966215 -0.047019 -0.283057
F -1.125453 0.141572 -1.659113
F -1.532337 1.121323 0.415974
F -1.820757 -1.105165 0.130004
S 0.991873 -0.160163 0.274515
O 0.834866 -0.289066 1.626883
O 1.842032 -1.047784 -0.505065
O 1.257501 1.399968 -0.074849
H 2.021374 1.665715 -0.970929
9
Time step 1679
C -0.965777 -0.046970 -0.282364
F -1.125312 0.141372 -1.658443
F -1.532674 1.120989 0.415405
F -1.820166 -1.104674 0.129280
S 0.991619 -0.159655 0.274315
O 0.835900 -0.289491 1.627217
O 1.840900 -1.048277 -0.504815
O 1.257471 1.399866 -0.075116
H 2.018803 1.666065 -0.966113
9
Time step 1680
C -0.965365 -0.046916 -0.281672
F -1.125168 0.141169 -1.657759
F -1.533002 1.120640 0.414826
F -1.819560 -1.104172 0.128551
S 0.991361 -0.159145 0.274096
O 0.836932 -0.289920 1.627591
O 1.839766 -1.048769 -0.504566
O 1.257460 1.399773 -0.075402
H 2.015935 1.666248 -0.960959
9
Time step 1681
C -0.964978 -0.046856 -0.280981
F -1.125021 0.140965 -1.657061
F -1.533320 1.120277 0.414237
F -1.818941 -1.103659 0.127816
S 0.991098 -0.158632 0.273857
O 0.837962 -0.290352 1.628004
O 1.838630 -1.049258 -0.504320
O 1.257468 1.399688 -0.075707
H 2.012773 1.666265 -0.955470
9
Time step 1682
C -0.964614 -0.046789 -0.280288
F -1.124873 0.140758 -1.656349
F -1.533629 1.119898 0.413638
F -1.818309 -1.103134 0.127076
S 0.990831 -0.158117 0.273599
O 0.838992 -0.290787 1.628458
O 1.837491 -1.049746 -0.504076
O 1.257496 1.399612 -0.076030
H 2.009319 1.666114 -0.949649
9
Time step 1683
C -0.964273 -0.046715 -0.279595
F -1.124723 0.140548 -1.655622
F -1.533929 1.119505 0.413030
F -1.817663 -1.102597 0.126330
S 0.990560 -0.157600 0.273322
O 0.840020 -0.291224 1.628951
O 1.836351 -1.050231 -0.503835
O 1.257542 1.399545 -0.076372
H 2.005575 1.665798 -0.943501
9
Time step 1684
C -0.963953 -0.046633 -0.278901
F -1.124570 0.140336 -1.654881
F -1.534219 1.119098 0.412411
F -1.817004 -1.102050 0.125578
S 0.990283 -0.157082 0.273025
O 0.841047 -0.291664 1.629484
O 1.835208 -1.050715 -0.503597
O 1.257605 1.399487 -0.076731
H 2.001544 1.665320 -0.937030
9
Time step 1685
C -0.963655 -0.046543 -0.278207
F -1.124415 0.140120 -1.654125
F -1.534500 1.118677 0.411783
F -1.816333 -1.101493 0.124820
S 0.990003 -0.156563 0.272709
O 0.842072 -0.292106 1.630056
O 1.834063 -1.051196 -0.503362
O 1.257687 1.399438 -0.077107
H 1.997228 1.664680 -0.930242
9
Time step 1686
C -0.963379 -0.046442 -0.277515
F -1.124257 0.139902 -1.653355
F -1.534770 1.118243 0.411146
F -1.815650 -1.100927 0.124058
S 0.989717 -0.156042 0.272374
O 0.843095 -0.292550 1.630668
O 1.832915 -1.051675 -0.503129
O 1.257786 1.399398 -0.077501
H 1.992632 1.663883 -0.923142
9
Time step 1687
C -0.963125 -0.046332 -0.276825
F -1.124097 0.139682 -1.652571
F -1.535031 1.117796 0.410499
F -1.814954 -1.100352 0.123292
S 0.989427 -0.155521 0.272022
O 0.844117 -0.292997 1.631317
O 1.831766 -1.052152 -0.502899
O 1.257902 1.399369 -0.077912
H 1.987762 1.662931 -0.915740
9
Time step 1688
C -0.962893 -0.046214 -0.276139
F -1.123933 0.139460 -1.651772
F -1.535283 1.117335 0.409843
F -1.814246 -1.099768 0.122523
S 0.989133 -0.154999 0.271651
O 0.845137 -0.293447 1.632003
O 1.830614 -1.052627 -0.502673
O 1.258035 1.399349 -0.078340
H 1.982625 1.661825 -0.908044
9
Time step 1689
C -0.962681 -0.046087 -0.275457
F -1.123766 0.139236 -1.650959
F -1.535526 1.116861 0.409178
F -1.813527 -1.099176 0.121750
S 0.988834 -0.154475 0.271265
O 0.846156 -0.293901 1.632724
O 1.829461 -1.053101 -0.502449
O 1.258184 1.399338 -0.078785
H 1.977227 1.660567 -0.900065
9
Time step 1690
C -0.962490 -0.045952 -0.274776
F -1.123596 0.139011 -1.650132
F -1.535760 1.116373 0.408503
F -1.812797 -1.098574 0.120974
S 0.988530 -0.153949 0.270863
O 0.847173 -0.294357 1.633478
O 1.828306 -1.053573 -0.502229
O 1.258350 1.399336 -0.079245
H 1.971576 1.659161 -0.891811
9
Time step 1691
C -0.962318 -0.045811 -0.274096
F -1.123424 0.138784 -1.649292
F -1.535985 1.115871 0.407817
F -1.812056 -1.097964 0.120194
S 0.988222 -0.153422 0.270447
O 0.848190 -0.294815 1.634265
O 1.827150 -1.054044 -0.502014
O 1.258532 1.399343 -0.079721
H 1.965681 1.657608 -0.883292
9
Time step 1692
C -0.962168 -0.045662 -0.273415
F -1.123248 0.138557 -1.648437
F -1.536202 1.115355 0.407122
F -1.811303 -1.097343 0.119410
S 0.987909 -0.152894 0.270017
O 0.849205 -0.295275 1.635083
O 1.825993 -1.054514 -0.501802
O 1.258729 1.399358 -0.080211
H 1.959553 1.655912 -0.874517
9
Time step 1693
C -0.962040 -0.045503 -0.272736
F -1.123070 0.138328 -1.647569
F -1.536410 1.114825 0.406418
F -1.810539 -1.096714 0.118622
S 0.987590 -0.152365 0.269574
O 0.850220 -0.295736 1.635930
O 1.824835 -1.054982 -0.501595
O 1.258940 1.399381 -0.080716
H 1.953202 1.654076 -0.865497
9
Time step 1694
C -0.961935 -0.045335 -0.272057
F -1.122889 0.138098 -1.646688
F -1.536608 1.114280 0.405704
F -1.809761 -1.096076 0.117830
S 0.987265 -0.151836 0.269117
O 0.851234 -0.296197 1.636808
O 1.823677 -1.055449 -0.501392
O 1.259165 1.399412 -0.081234
H 1.946646 1.652105 -0.856247
9
Time step 1695
C -0.961855 -0.045155 -0.271380
F -1.122705 0.137866 -1.645794
F -1.536796 1.113722 0.404981
F -1.808971 -1.095431 0.117034
S 0.986935 -0.151306 0.268647
O 0.852247 -0.296660 1.637715
O 1.822517 -1.055914 -0.501192
O 1.259402 1.399450 -0.081765
H 1.939902 1.650004 -0.846785
9
Time step 1696
C -0.961798 -0.044963 -0.270704
F -1.122517 0.137633 -1.644887
F -1.536975 1.113150 0.404250
F -1.808168 -1.094777 0.116235
S 0.986599 -0.150777 0.268163
O 0.853260 -0.297125 1.638651
O 1.821357 -1.056377 -0.500995
O 1.259650 1.399495 -0.082306
H 1.932993 1.647780 -0.837132
9
Time step 1697
C -0.961763 -0.044760 -0.270030
F -1.122327 0.137398 -1.643967
F -1.537145 1.112565 0.403510
F -1.807352 -1.094116 0.115433
S 0.986257 -0.150247 0.267666
O 0.854272 -0.297591 1.639618
O 1.820195 -1.056838 -0.500800
O 1.259908 1.399548 -0.082858
H 1.925943 1.645438 -0.827317
9
Time step 1698
C -0.961748 -0.044545 -0.269354
F -1.122134 0.137161 -1.643034
F -1.537306 1.111966 0.402760
F -1.806525 -1.093446 0.114626
S 0.985909 -0.149718 0.267154
O 0.855284 -0.298059 1.640615
O 1.819032 -1.057297 -0.500609
O 1.260173 1.399608 -0.083417
H 1.918779 1.642989 -0.817369
9
Time step 1699
C -0.961754 -0.044321 -0.268677
F -1.121938 0.136923 -1.642089
F -1.537457 1.111352 0.402002
F -1.805685 -1.092768 0.113815
S 0.985555 -0.149189 0.266628
O 0.856296 -0.298529 1.641642
O 1.817867 -1.057754 -0.500420
O 1.260444 1.399674 -0.083982
H 1.911532 1.640443 -0.807320
9
Time step 1700
C -0.961782 -0.044089 -0.267998
F -1.121739 0.136684 -1.641131
F -1.537600 1.110724 0.401235
F -1.804832 -1.092079 0.112999
S 0.985196 -0.148659 0.266089
O 0.857306 -0.299000 1.642698
O 1.816701 -1.058208 -0.500234
O 1.260719 1.399746 -0.084550
H 1.904231 1.637810 -0.797207
9
Time step 1701
C -0.961835 -0.043849 -0.267319
F -1.121536 0.136443 -1.640161
F -1.537732 1.110082 0.400459
F -1.803967 -1.091382 0.112180
S 0.984831 -0.148130 0.265537
O 0.858316 -0.299473 1.643782
O 1.815533 -1.058662 -0.500052
O 1.260996 1.399824 -0.085120
H 1.896909 1.635104 -0.787065
9
Time step 1702
C -0.961914 -0.043603 -0.266641
F -1.121330 0.136202 -1.639179
F -1.537854 1.109427 0.399675
F -1.803088 -1.090675 0.111358
S 0.984461 -0.147600 0.264973
O 0.859325 -0.299945 1.644894
O 1.814363 -1.059113 -0.499873
O 1.261273 1.399905 -0.085688
H 1.889603 1.632339 -0.776934
9
Time step 1703
C -0.962019 -0.043350 -0.265966
F -1.121121 0.135960 -1.638185
F -1.537965 1.108758 0.398883
F -1.802196 -1.089960 0.110533
S 0.984086 -0.147071 0.264399
O 0.860334 -0.300418 1.646030
O 1.813192 -1.059563 -0.499699
O 1.261546 1.399990 -0.086251
H 1.882350 1.629531 -0.766857
9
Time step 1704
C -0.962148 -0.043090 -0.265297
F -1.120908 0.135716 -1.637179
F -1.538066 1.108076 0.398083
F -1.801291 -1.089236 0.109705
S 0.983705 -0.146542 0.263815
O 0.861341 -0.300891 1.647190
O 1.812018 -1.060011 -0.499529
O 1.261813 1.400076 -0.086807
H 1.875192 1.626694 -0.756883
9
Time step 1705
C -0.962297 -0.042820 -0.264631
F -1.120694 0.135471 -1.636161
F -1.538158 1.107382 0.397275
F -1.800374 -1.088505 0.108875
S 0.983319 -0.146013 0.263223
O 0.862349 -0.301364 1.648373
O 1.810843 -1.060458 -0.499364
O 1.262070 1.400162 -0.087351
H 1.868177 1.623847 -0.747064
9
Time step 1706
C -0.962463 -0.042542 -0.263970
F -1.120477 0.135225 -1.635131
F -1.538242 1.106677 0.396459
F -1.799445 -1.087765 0.108041
S 0.982928 -0.145484 0.262623
O 0.863356 -0.301838 1.649577
O 1.809667 -1.060904 -0.499204
O 1.262315 1.400248 -0.087881
H 1.861355 1.621007 -0.737462
9
Time step 1707
C -0.962644 -0.042254 -0.263310
F -1.120259 0.134977 -1.634090
F -1.538318 1.105959 0.395635
F -1.798506 -1.087019 0.107204
S 0.982531 -0.144955 0.262015
O 0.864363 -0.302313 1.650803
O 1.808489 -1.061349 -0.499050
O 1.262544 1.400331 -0.088393
H 1.854781 1.618192 -0.728140
9
Time step 1708
C -0.962841 -0.041957 -0.262651
F -1.120039 0.134728 -1.633038
F -1.538384 1.105229 0.394804
F -1.797555 -1.086265 0.106363
S 0.982127 -0.144427 0.261401
O 0.865371 -0.302788 1.652048
O 1.807311 -1.061792 -0.498901
O 1.262754 1.400411 -0.088884
H 1.848511 1.615424 -0.719164
9
Time step 1709
C -0.963057 -0.041651 -0.261993
F -1.119816 0.134478 -1.631975
F -1.538442 1.104487 0.393964
F -1.796594 -1.085503 0.105520
S 0.981717 -0.143898 0.260781
O 0.866378 -0.303262 1.653314
O 1.806133 -1.062235 -0.498758
O 1.262940 1.400486 -0.089348
H 1.842607 1.612723 -0.710602
9
Time step 1710
C -0.963296 -0.041336 -0.261336
F -1.119588 0.134226 -1.630902
F -1.538489 1.103734 0.393118
F -1.795621 -1.084735 0.104673
S 0.981300 -0.143370 0.260155
O 0.867385 -0.303737 1.654598
O 1.804956 -1.062675 -0.498621
O 1.263099 1.400555 -0.089783
H 1.837129 1.610113 -0.702520
9
Time step 1711
C -0.963560 -0.041012 -0.260683
F -1.119357 0.133973 -1.629818
F -1.538526 1.102969 0.392266
F -1.794635 -1.083960 0.103823
S 0.980876 -0.142843 0.259523
O 0.868391 -0.304211 1.655899
O 1.803779 -1.063114 -0.498491
O 1.263227 1.400617 -0.090183
H 1.832140 1.607616 -0.694980
9
Time step 1712
C -0.963847 -0.040678 -0.260035
F -1.119121 0.133718 -1.628723
F -1.538553 1.102192 0.391407
F -1.793638 -1.083179 0.102971
S 0.980446 -0.142317 0.258887
O 0.869396 -0.304683 1.657216
O 1.802602 -1.063551 -0.498366
O 1.263322 1.400671 -0.090546
H 1.827700 1.605255 -0.688042
9
Time step 1713
C -0.964157 -0.040334 -0.259395
F -1.118881 0.133462 -1.627615
F -1.538571 1.101404 0.390543
F -1.792631 -1.082391 0.102118
S 0.980009 -0.141793 0.258245
O 0.870401 -0.305154 1.658549
O 1.801426 -1.063985 -0.498246
O 1.263380 1.400716 -0.090868
H 1.823868 1.603053 -0.681761
9
Time step 1714
C -0.964485 -0.039981 -0.258762
F -1.118639 0.133204 -1.626496
F -1.538580 1.100605 0.389673
F -1.791614 -1.081598 0.101262
S 0.979567 -0.141272 0.257600
O 0.871405 -0.305624 1.659895
O 1.800249 -1.064418 -0.498131
O 1.263397 1.400751 -0.091145
H 1.820701 1.601032 -0.676186
9
Time step 1715
C -0.964831 -0.039618 -0.258138
F -1.118393 0.132945 -1.625365
F -1.538582 1.099795 0.388796
F -1.790589 -1.080799 0.100406
S 0.979119 -0.140752 0.256952
O 0.872409 -0.306093 1.661254
O 1.799072 -1.064848 -0.498020
O 1.263371 1.400775 -0.091376
H 1.818249 1.599212 -0.671361
9
Time step 1716
C -0.965192 -0.039245 -0.257522
F -1.118145 0.132686 -1.624223
F -1.538576 1.098974 0.387914
F -1.789555 -1.079996 0.099548
S 0.978665 -0.140236 0.256300
O 0.873414 -0.306561 1.662625
O 1.797895 -1.065276 -0.497914
O 1.263300 1.400789 -0.091557
H 1.816555 1.597609 -0.667326
9
Time step 1717
C -0.965571 -0.038863 -0.256911
F -1.117894 0.132426 -1.623070
F -1.538562 1.098142 0.387024
F -1.788512 -1.079188 0.098691
S 0.978204 -0.139722 0.255645
O 0.874420 -0.307029 1.664007
O 1.796718 -1.065702 -0.497812
O 1.263181 1.400792 -0.091687
H 1.815656 1.596239 -0.664112
9
Time step 1718
C -0.965968 -0.038471 -0.256307
F -1.117640 0.132166 -1.621908
F -1.538540 1.097299 0.386128
F -1.787460 -1.078375 0.097833
S 0.977736 -0.139212 0.254989
O 0.875426 -0.307494 1.665399
O 1.795540 -1.066125 -0.497715
O 1.263012 1.400783 -0.091764
H 1.815580 1.595112 -0.661746
9
Time step 1719
C -0.966387 -0.038070 -0.255706
F -1.117382 0.131905 -1.620737
F -1.538510 1.096446 0.385226
F -1.786397 -1.077558 0.096975
S 0.977260 -0.138705 0.254330
O 0.876434 -0.307958 1.666802
O 1.794363 -1.066547 -0.497622
O 1.262794 1.400763 -0.091787
H 1.816343 1.594234 -0.660244
9
Time step 1720
C -0.966827 -0.037659 -0.255110
F -1.117121 0.131644 -1.619557
F -1.538470 1.095582 0.384317
F -1.785324 -1.076736 0.096115
S 0.976777 -0.138202 0.253669
O 0.877442 -0.308419 1.668214
O 1.793187 -1.066967 -0.497536
O 1.262526 1.400729 -0.091754
H 1.817951 1.593606 -0.659614
9
Time step 1721
C -0.967287 -0.037238 -0.254516
F -1.116857 0.131382 -1.618367
F -1.538421 1.094706 0.383402
F -1.784241 -1.075908 0.095254
S 0.976286 -0.137702 0.253008
O 0.878451 -0.308878 1.669636
O 1.792011 -1.067384 -0.497455
O 1.262207 1.400683 -0.091668
H 1.820399 1.593226 -0.659850
9
Time step 1722
C -0.967766 -0.036809 -0.253924
F -1.116590 0.131119 -1.617167
F -1.538365 1.093819 0.382479
F -1.783147 -1.075075 0.094391
S 0.975787 -0.137204 0.252344
O 0.879461 -0.309334 1.671068
O 1.790834 -1.067801 -0.497380
O 1.261839 1.400623 -0.091527
H 1.823673 1.593086 -0.660938
9
Time step 1723
C -0.968263 -0.036370 -0.253333
F -1.116319 0.130855 -1.615958
F -1.538300 1.092920 0.381549
F -1.782044 -1.074236 0.093525
S 0.975282 -0.136709 0.251681
O 0.880471 -0.309787 1.672507
O 1.789658 -1.068216 -0.497312
O 1.261423 1.400552 -0.091336
H 1.827748 1.593174 -0.662849
9
Time step 1724
C -0.968778 -0.035924 -0.252744
F -1.116044 0.130592 -1.614739
F -1.538226 1.092011 0.380613
F -1.780932 -1.073392 0.092658
S 0.974770 -0.136216 0.251016
O 0.881481 -0.310239 1.673954
O 1.788481 -1.068630 -0.497250
O 1.260960 1.400468 -0.091095
H 1.832589 1.593477 -0.665546
9
Time step 1725
C -0.969312 -0.035470 -0.252157
F -1.115765 0.130328 -1.613511
F -1.538144 1.091091 0.379669
F -1.779811 -1.072544 0.091790
S 0.974251 -0.135724 0.250353
O 0.882492 -0.310689 1.675409
O 1.787303 -1.069043 -0.497195
O 1.260452 1.400374 -0.090810
H 1.838154 1.593975 -0.668982
9
Time step 1726
C -0.969865 -0.035008 -0.251573
F -1.115482 0.130065 -1.612275
F -1.538054 1.090161 0.378720
F -1.778680 -1.071692 0.090922
S 0.973726 -0.135233 0.249691
O 0.883503 -0.311138 1.676869
O 1.786126 -1.069454 -0.497146
O 1.259904 1.400270 -0.090483
H 1.844397 1.594652 -0.673101
9
Time step 1727
C -0.970435 -0.034539 -0.250995
F -1.115194 0.129802 -1.611032
F -1.537955 1.089221 0.377765
F -1.777541 -1.070837 0.090055
S 0.973193 -0.134743 0.249033
O 0.884515 -0.311587 1.678334
O 1.784949 -1.069865 -0.497106
O 1.259318 1.400159 -0.090118
H 1.851262 1.595484 -0.677844
9
Time step 1728
C -0.971022 -0.034063 -0.250423
F -1.114904 0.129539 -1.609782
F -1.537848 1.088273 0.376804
F -1.776392 -1.069978 0.089188
S 0.972652 -0.134255 0.248378
O 0.885527 -0.312034 1.679802
O 1.783772 -1.070276 -0.497073
O 1.258698 1.400040 -0.089720
H 1.858695 1.596452 -0.683150
9
Time step 1729
C -0.971621 -0.033579 -0.249859
F -1.114612 0.129276 -1.608525
F -1.537734 1.087317 0.375839
F -1.775234 -1.069116 0.088322
S 0.972103 -0.133769 0.247728
O 0.886539 -0.312480 1.681273
O 1.782597 -1.070685 -0.497048
O 1.258049 1.399917 -0.089293
H 1.866635 1.597534 -0.688956
9
Time step 1730
C -0.972233 -0.033087 -0.249304
F -1.114318 0.129013 -1.607261
F -1.537612 1.086351 0.374870
F -1.774067 -1.068250 0.087456
S 0.971546 -0.133284 0.247084
O 0.887552 -0.312923 1.682745
O 1.781423 -1.071095 -0.497031
O 1.257374 1.399789 -0.088839
H 1.875021 1.598706 -0.695199
9
Time step 1731
C -0.972855 -0.032587 -0.248757
F -1.114022 0.128750 -1.605989
F -1.537484 1.085378 0.373897
F -1.772892 -1.067381 0.086591
S 0.970981 -0.132802 0.246445
O 0.888566 -0.313364 1.684219
O 1.780251 -1.071503 -0.497022
O 1.256676 1.399659 -0.088364
H 1.883792 1.599949 -0.701818
9
Time step 1732
C -0.973488 -0.032077 -0.248217
F -1.113723 0.128486 -1.604710
F -1.537348 1.084396 0.372919
F -1.771709 -1.066510 0.085725
S 0.970408 -0.132322 0.245812
O 0.889581 -0.313803 1.685692
O 1.779081 -1.071912 -0.497022
O 1.255959 1.399528 -0.087870
H 1.892887 1.601239 -0.708753
9
Time step 1733
C -0.974134 -0.031558 -0.247684
F -1.113421 0.128224 -1.603423
F -1.537205 1.083406 0.371937
F -1.770517 -1.065637 0.084860
S 0.969826 -0.131846 0.245185
O 0.890597 -0.314238 1.687165
O 1.777912 -1.072320 -0.497029
O 1.255226 1.399397 -0.087363
H 1.902246 1.602558 -0.715948
9
Time step 1734
C -0.974792 -0.031029 -0.247157
F -1.113116 0.127961 -1.602130
F -1.537055 1.082408 0.370950
F -1.769317 -1.064762 0.083996
S 0.969237 -0.131373 0.244563
O 0.891612 -0.314671 1.688637
O 1.776744 -1.072727 -0.497044
O 1.254480 1.399268 -0.086845
H 1.911813 1.603886 -0.723345
9
Time step 1735
C -0.975461 -0.030487 -0.246634
F -1.112806 0.127699 -1.600830
F -1.536897 1.081403 0.369960
F -1.768110 -1.063887 0.083132
S 0.968640 -0.130904 0.243947
O 0.892628 -0.315100 1.690108
O 1.775577 -1.073132 -0.497066
O 1.253725 1.399143 -0.086320
H 1.921533 1.605205 -0.730893
9
Time step 1736
C -0.976141 -0.029934 -0.246115
F -1.112492 0.127436 -1.599525
F -1.536733 1.080391 0.368966
F -1.766896 -1.063012 0.082269
S 0.968036 -0.130441 0.243337
O 0.893644 -0.315526 1.691575
O 1.774410 -1.073536 -0.497094
O 1.252964 1.399023 -0.085791
H 1.931354 1.606500 -0.738539
9
Time step 1737
C -0.976828 -0.029370 -0.245601
F -1.112176 0.127174 -1.598214
F -1.536564 1.079373 0.367969
F -1.765675 -1.062137 0.081406
S 0.967427 -0.129982 0.242733
O 0.894659 -0.315949 1.693038
O 1.773243 -1.073937 -0.497130
O 1.252202 1.398910 -0.085261
H 1.941228 1.607759 -0.746235
9
Time step 1738
C -0.977523 -0.028795 -0.245093
F -1.111858 0.126912 -1.596898
F -1.536389 1.078349 0.366968
F -1.764449 -1.061263 0.080545
S 0.966811 -0.129530 0.242136
O 0.895675 -0.316368 1.694497
O 1.772075 -1.074336 -0.497171
O 1.251441 1.398804 -0.084732
H 1.951110 1.608970 -0.753936
9
Time step 1739
C -0.978227 -0.028210 -0.244592
F -1.111536 0.126649 -1.595577
F -1.536208 1.077320 0.365964
F -1.763218 -1.060389 0.079684
S 0.966190 -0.129082 0.241547
O 0.896690 -0.316783 1.695950
O 1.770907 -1.074733 -0.497220
O 1.250683 1.398708 -0.084207
H 1.960958 1.610124 -0.761602
9
Time step 1740
C -0.978942 -0.027618 -0.244101
F -1.111212 0.126386 -1.594250
F -1.536020 1.076285 0.364958
F -1.761981 -1.059515 0.078826
S 0.965563 -0.128640 0.240965
O 0.897707 -0.317194 1.697397
O 1.769739 -1.075128 -0.497275
O 1.249932 1.398622 -0.083687
H 1.970733 1.611213 -0.769196
9
Time step 1741
C -0.979672 -0.027018 -0.243618
F -1.110882 0.126124 -1.592919
F -1.535825 1.075245 0.363949
F -1.760737 -1.058643 0.077970
S 0.964930 -0.128203 0.240392
O 0.898723 -0.317600 1.698837
O 1.768570 -1.075523 -0.497338
O 1.249189 1.398545 -0.083173
H 1.980401 1.612230 -0.776687
9
Time step 1742
C -0.980417 -0.026412 -0.243146
F -1.110549 0.125861 -1.591582
F -1.535623 1.074199 0.362937
F -1.759487 -1.057770 0.077116
S 0.964290 -0.127771 0.239826
O 0.899740 -0.318001 1.700271
O 1.767401 -1.075918 -0.497409
O 1.248455 1.398479 -0.082668
H 1.989930 1.613168 -0.784050
9
Time step 1743
C -0.981176 -0.025798 -0.242683
F -1.110211 0.125599 -1.590241
F -1.535412 1.073149 0.361924
F -1.758230 -1.056897 0.076265
S 0.963644 -0.127343 0.239268
O 0.900756 -0.318397 1.701697
O 1.766233 -1.076313 -0.497487
O 1.247734 1.398425 -0.082173
H 1.999295 1.614020 -0.791261
9
Time step 1744
C -0.981945 -0.025177 -0.242228
F -1.109869 0.125337 -1.588895
F -1.535195 1.072092 0.360908
F -1.756967 -1.056025 0.075415
S 0.962990 -0.126920 0.238719
O 0.901773 -0.318789 1.703117
O 1.765065 -1.076707 -0.497574
O 1.247026 1.398381 -0.081689
H 2.008472 1.614777 -0.798303
9
Time step 1745
C -0.982721 -0.024549 -0.241780
F -1.109525 0.125075 -1.587545
F -1.534971 1.071030 0.359890
F -1.755699 -1.055153 0.074568
S 0.962329 -0.126501 0.238179
O 0.902790 -0.319176 1.704529
O 1.763899 -1.077102 -0.497668
O 1.246332 1.398349 -0.081217
H 2.017443 1.615433 -0.805160
9
Time step 1746
C -0.983500 -0.023913 -0.241339
F -1.109178 0.124815 -1.586192
F -1.534743 1.069963 0.358868
F -1.754426 -1.054282 0.073723
S 0.961661 -0.126086 0.237647
O 0.903807 -0.319559 1.705934
O 1.762733 -1.077496 -0.497771
O 1.245655 1.398329 -0.080760
H 2.026192 1.615980 -0.811817
9
Time step 1747
C -0.984282 -0.023271 -0.240904
F -1.108830 0.124556 -1.584836
F -1.534509 1.068891 0.357845
F -1.753150 -1.053412 0.072880
S 0.960985 -0.125677 0.237126
O 0.904825 -0.319938 1.707332
O 1.761569 -1.077889 -0.497882
O 1.244995 1.398321 -0.080318
H 2.034703 1.616411 -0.818260
9
Time step 1748
C -0.985068 -0.022623 -0.240477
F -1.108478 0.124299 -1.583477
F -1.534271 1.067815 0.356819
F -1.751870 -1.052545 0.072041
S 0.960303 -0.125272 0.236614
O 0.905842 -0.320313 1.708721
O 1.760407 -1.078280 -0.498000
O 1.244353 1.398326 -0.079893
H 2.042964 1.616724 -0.824476
9
Time step 1749
C -0.985860 -0.021968 -0.240059
F -1.108123 0.124044 -1.582116
F -1.534027 1.066736 0.355790
F -1.750585 -1.051681 0.071206
S 0.959613 -0.124873 0.236114
O 0.906859 -0.320684 1.710100
O 1.759246 -1.078671 -0.498127
O 1.243729 1.398344 -0.079485
H 2.050961 1.616916 -0.830452
9
Time step 1750
C -0.986659 -0.021307 -0.239650
F -1.107764 0.123792 -1.580752
F -1.533777 1.065654 0.354761
F -1.749296 -1.050819 0.070375
S 0.958916 -0.124480 0.235624
O 0.907876 -0.321050 1.711470
O 1.758087 -1.079059 -0.498263
O 1.243123 1.398375 -0.079097
H 2.058682 1.616986 -0.836176
9
Time step 1751
C -0.987462 -0.020640 -0.239251
F -1.107402 0.123541 -1.579386
F -1.533523 1.064568 0.353730
F -1.748003 -1.049961 0.069547
S 0.958212 -0.124092 0.235146
O 0.908893 -0.321412 1.712830
O 1.756929 -1.079446 -0.498407
O 1.242537 1.398419 -0.078727
H 2.066116 1.616934 -0.841637
9
Time step 1752
C -0.988267 -0.019965 -0.238861
F -1.107037 0.123291 -1.578018
F -1.533265 1.063480 0.352698
F -1.746707 -1.049104 0.068724
S 0.957501 -0.123711 0.234680
O 0.909910 -0.321769 1.714178
O 1.755772 -1.079832 -0.498560
O 1.241972 1.398477 -0.078377
H 2.073252 1.616762 -0.846827
9
Time step 1753
C -0.989072 -0.019283 -0.238482
F -1.106669 0.123041 -1.576649
F -1.533003 1.062389 0.351666
F -1.745407 -1.048250 0.067903
S 0.956783 -0.123336 0.234226
O 0.910927 -0.322122 1.715514
O 1.754617 -1.080217 -0.498722
O 1.241428 1.398549 -0.078046
H 2.080082 1.616470 -0.851740
9
Time step 1754
C -0.989875 -0.018596 -0.238111
F -1.106300 0.122792 -1.575277
F -1.532738 1.061296 0.350633
F -1.744105 -1.047398 0.067087
S 0.956058 -0.122966 0.233784
O 0.911943 -0.322470 1.716838
O 1.753462 -1.080601 -0.498892
O 1.240908 1.398635 -0.077735
H 2.086597 1.616061 -0.856370
9
Time step 1755
C -0.990676 -0.017905 -0.237749
F -1.105927 0.122544 -1.573905
F -1.532470 1.060200 0.349600
F -1.742802 -1.046550 0.066274
S 0.955326 -0.122602 0.233354
O 0.912959 -0.322813 1.718151
O 1.752309 -1.080983 -0.499070
O 1.240410 1.398735 -0.077444
H 2.092793 1.615534 -0.860716
9
Time step 1756
C -0.991478 -0.017211 -0.237395
F -1.105552 0.122299 -1.572534
F -1.532197 1.059105 0.348566
F -1.741497 -1.045707 0.065466
S 0.954587 -0.122244 0.232936
O 0.913975 -0.323152 1.719450
O 1.751155 -1.081364 -0.499256
O 1.239937 1.398849 -0.077173
H 2.098664 1.614891 -0.864774
9
Time step 1757
C -0.992283 -0.016515 -0.237048
F -1.105172 0.122056 -1.571164
F -1.531920 1.058010 0.347533
F -1.740191 -1.044870 0.064663
S 0.953842 -0.121890 0.232529
O 0.914992 -0.323486 1.720737
O 1.750002 -1.081743 -0.499450
O 1.239487 1.398977 -0.076923
H 2.104207 1.614131 -0.868541
9
Time step 1758
C -0.993092 -0.015818 -0.236710
F -1.104787 0.121817 -1.569798
F -1.531639 1.056916 0.346501
F -1.738882 -1.044041 0.063866
S 0.953090 -0.121543 0.232136
O 0.916008 -0.323815 1.722011
O 1.748848 -1.082119 -0.499651
O 1.239060 1.399119 -0.076694
H 2.109418 1.613254 -0.872014
9
Time step 1759
C -0.993901 -0.015119 -0.236378
F -1.104399 0.121581 -1.568434
F -1.531354 1.055825 0.345470
F -1.737571 -1.043219 0.063073
S 0.952332 -0.121201 0.231755
O 0.917024 -0.324140 1.723271
O 1.747693 -1.082494 -0.499860
O 1.238656 1.399273 -0.076487
H 2.114295 1.612261 -0.875188
9
Time step 1760
C -0.994707 -0.014416 -0.236055
F -1.104007 0.121347 -1.567073
F -1.531067 1.054736 0.344441
F -1.736257 -1.042403 0.062285
S 0.951568 -0.120865 0.231387
O 0.918040 -0.324459 1.724517
O 1.746538 -1.082867 -0.500076
O 1.238275 1.399439 -0.076302
H 2.118834 1.611149 -0.878058
9
Time step 1761
C -0.995506 -0.013707 -0.235742
F -1.103614 0.121114 -1.565713
F -1.530778 1.053650 0.343414
F -1.734942 -1.041594 0.061501
S 0.950798 -0.120536 0.231034
O 0.919055 -0.324773 1.725748
O 1.745384 -1.083239 -0.500301
O 1.237916 1.399617 -0.076139
H 2.123032 1.609919 -0.880621
9
Time step 1762
C -0.996298 -0.012993 -0.235438
F -1.103220 0.120883 -1.564353
F -1.530489 1.052566 0.342389
F -1.733626 -1.040792 0.060720
S 0.950023 -0.120211 0.230694
O 0.920070 -0.325083 1.726964
O 1.744229 -1.083609 -0.500534
O 1.237581 1.399807 -0.075999
H 2.126883 1.608570 -0.882870
9
Time step 1763
C -0.997082 -0.012273 -0.235145
F -1.102823 0.120653 -1.562994
F -1.530199 1.051484 0.341365
F -1.732309 -1.039996 0.059944
S 0.949242 -0.119892 0.230370
O 0.921084 -0.325388 1.728164
O 1.743076 -1.083978 -0.500775
O 1.237269 1.400009 -0.075883
H 2.130385 1.607101 -0.884804
9
Time step 1764
C -0.997864 -0.011545 -0.234862
F -1.102423 0.120424 -1.561636
F -1.529905 1.050403 0.340343
F -1.730992 -1.039208 0.059172
S 0.948454 -0.119578 0.230060
O 0.922098 -0.325688 1.729348
O 1.741923 -1.084347 -0.501026
O 1.236982 1.400223 -0.075789
H 2.133534 1.605514 -0.886419
9
Time step 1765
C -0.998646 -0.010812 -0.234589
F -1.102018 0.120197 -1.560280
F -1.529608 1.049325 0.339322
F -1.729675 -1.038429 0.058405
S 0.947661 -0.119269 0.229765
O 0.923111 -0.325984 1.730516
O 1.740772 -1.084714 -0.501285
O 1.236718 1.400451 -0.075720
H 2.136328 1.603809 -0.887713
9
Time step 1766
C -0.999429 -0.010070 -0.234325
F -1.101609 0.119973 -1.558927
F -1.529307 1.048249 0.338305
F -1.728357 -1.037660 0.057644
S 0.946860 -0.118965 0.229484
O 0.924124 -0.326275 1.731667
O 1.739624 -1.085080 -0.501552
O 1.236480 1.400691 -0.075674
H 2.138765 1.601985 -0.888687
9
Time step 1767
C -1.000212 -0.009322 -0.234067
F -1.101195 0.119750 -1.557579
F -1.529001 1.047174 0.337289
F -1.727040 -1.036900 0.056890
S 0.946052 -0.118667 0.229219
O 0.925136 -0.326561 1.732800
O 1.738477 -1.085446 -0.501829
O 1.236266 1.400946 -0.075650
H 2.140845 1.600045 -0.889339
9
Time step 1768
C -1.000990 -0.008566 -0.233817
F -1.100777 0.119529 -1.556237
F -1.528693 1.046103 0.336276
F -1.725723 -1.036150 0.056143
S 0.945238 -0.118375 0.228968
O 0.926147 -0.326842 1.733916
O 1.737332 -1.085811 -0.502114
O 1.236077 1.401215 -0.075650
H 2.142567 1.597988 -0.889669
9
Time step 1769
C -1.001757 -0.007803 -0.233575
F -1.100357 0.119310 -1.554900
F -1.528385 1.045035 0.335266
F -1.724407 -1.035408 0.055401
S 0.944416 -0.118091 0.228732
O 0.927158 -0.327116 1.735014
O 1.736188 -1.086175 -0.502409
O 1.235913 1.401498 -0.075671
H 2.143932 1.595817 -0.889678
9
Time step 1770
C -1.002509 -0.007036 -0.233344
F -1.099936 0.119092 -1.553568
F -1.528077 1.043972 0.334260
F -1.723092 -1.034676 0.054666
S 0.943589 -0.117814 0.228511
O 0.928167 -0.327384 1.736094
O 1.735045 -1.086538 -0.502711
O 1.235773 1.401795 -0.075714
H 2.144940 1.593532 -0.889364
9
Time step 1771
C -1.003246 -0.006266 -0.233127
F -1.099513 0.118878 -1.552238
F -1.527770 1.042915 0.333257
F -1.721778 -1.033954 0.053939
S 0.942755 -0.117545 0.228304
O 0.929176 -0.327646 1.737156
O 1.733903 -1.086899 -0.503022
O 1.235657 1.402106 -0.075778
H 2.145592 1.591136 -0.888730
9
Time step 1772
C -1.003970 -0.005496 -0.232927
F -1.099087 0.118666 -1.550912
F -1.527464 1.041864 0.332259
F -1.720465 -1.033242 0.053219
S 0.941916 -0.117283 0.228113
O 0.930183 -0.327901 1.738199
O 1.732760 -1.087260 -0.503342
O 1.235566 1.402431 -0.075865
H 2.145887 1.588629 -0.887773
9
Time step 1773
C -1.004685 -0.004728 -0.232744
F -1.098657 0.118459 -1.549588
F -1.527157 1.040822 0.331265
F -1.719153 -1.032542 0.052507
S 0.941071 -0.117028 0.227937
O 0.931190 -0.328149 1.739225
O 1.731616 -1.087619 -0.503669
O 1.235499 1.402771 -0.075974
H 2.145825 1.586014 -0.886497
9
Time step 1774
C -1.005392 -0.003962 -0.232578
F -1.098222 0.118256 -1.548270
F -1.526849 1.039788 0.330277
F -1.717842 -1.031853 0.051803
S 0.940219 -0.116781 0.227776
O 0.932195 -0.328392 1.740232
O 1.730472 -1.087976 -0.504005
O 1.235456 1.403125 -0.076106
H 2.145407 1.583293 -0.884902
9
Time step 1775
C -1.006092 -0.003197 -0.232425
F -1.097782 0.118056 -1.546957
F -1.526540 1.038761 0.329294
F -1.716531 -1.031177 0.051107
S 0.939362 -0.116540 0.227631
O 0.933200 -0.328629 1.741221
O 1.729326 -1.088332 -0.504348
O 1.235439 1.403494 -0.076261
H 2.144632 1.580468 -0.882990
9
Time step 1776
C -1.006781 -0.002432 -0.232282
F -1.097339 0.117860 -1.545653
F -1.526231 1.037741 0.328316
F -1.715222 -1.030512 0.050419
S 0.938499 -0.116307 0.227501
O 0.934204 -0.328861 1.742191
O 1.728179 -1.088685 -0.504699
O 1.235447 1.403877 -0.076440
H 2.143501 1.577542 -0.880764
9
Time step 1777
C -1.007456 -0.001666 -0.232147
F -1.096894 0.117666 -1.544358
F -1.525922 1.036729 0.327344
F -1.713914 -1.029858 0.049738
S 0.937631 -0.116081 0.227388
O 0.935207 -0.329086 1.743142
O 1.727030 -1.089037 -0.505059
O 1.235480 1.404276 -0.076641
H 2.142015 1.574519 -0.878225
9
Time step 1778
C -1.008115 -0.000901 -0.232018
F -1.096446 0.117474 -1.543073
F -1.525615 1.035726 0.326378
F -1.712610 -1.029216 0.049063
S 0.936757 -0.115863 0.227290
O 0.936208 -0.329306 1.744074
O 1.725881 -1.089387 -0.505426
O 1.235539 1.404688 -0.076864
H 2.140174 1.571400 -0.875377
9
Time step 1779
C -1.008756 -0.000139 -0.231897
F -1.095996 0.117285 -1.541797
F -1.525312 1.034733 0.325417
F -1.711308 -1.028585 0.048396
S 0.935878 -0.115653 0.227208
O 0.937208 -0.329518 1.744987
O 1.724731 -1.089734 -0.505802
O 1.235624 1.405113 -0.077108
H 2.137982 1.568190 -0.872221
9
Time step 1780
C -1.009380 0.000618 -0.231784
F -1.095544 0.117100 -1.540530
F -1.525012 1.033750 0.324462
F -1.710010 -1.027967 0.047736
S 0.934995 -0.115451 0.227142
O 0.938207 -0.329724 1.745878
O 1.723580 -1.090079 -0.506185
O 1.235735 1.405552 -0.077373
H 2.135441 1.564891 -0.868760
9
Time step 1781
C -1.009991 0.001368 -0.231683
F -1.095088 0.116919 -1.539273
F -1.524714 1.032781 0.323515
F -1.708715 -1.027362 0.047085
S 0.934108 -0.115256 0.227091
O 0.939203 -0.329923 1.746749
O 1.722429 -1.090420 -0.506577
O 1.235871 1.406003 -0.077660
H 2.132554 1.561505 -0.864995
9
Time step 1782
C -1.010590 0.002110 -0.231595
F -1.094628 0.116744 -1.538024
F -1.524419 1.031823 0.322574
F -1.707424 -1.026771 0.046443
S 0.933217 -0.115069 0.227057
O 0.940197 -0.330115 1.747600
O 1.721277 -1.090759 -0.506976
O 1.236031 1.406465 -0.077968
H 2.129324 1.558033 -0.860929
9
Time step 1783
C -1.011178 0.002846 -0.231519
F -1.094164 0.116572 -1.536785
F -1.524126 1.030879 0.321641
F -1.706137 -1.026194 0.045811
S 0.932323 -0.114890 0.227039
O 0.941189 -0.330301 1.748429
O 1.720125 -1.091094 -0.507382
O 1.236216 1.406940 -0.078298
H 2.125754 1.554477 -0.856565
9
Time step 1784
C -1.011751 0.003580 -0.231457
F -1.093696 0.116405 -1.535557
F -1.523835 1.029945 0.320716
F -1.704854 -1.025631 0.045187
S 0.931425 -0.114719 0.227038
O 0.942178 -0.330481 1.749237
O 1.718973 -1.091426 -0.507795
O 1.236425 1.407426 -0.078652
H 2.121846 1.550838 -0.851904
9
Time step 1785
C -1.012307 0.004316 -0.231406
F -1.093226 0.116241 -1.534339
F -1.523545 1.029022 0.319799
F -1.703577 -1.025083 0.044572
S 0.930524 -0.114555 0.227054
O 0.943166 -0.330655 1.750024
O 1.717821 -1.091753 -0.508215
O 1.236656 1.407923 -0.079028
H 2.117602 1.547118 -0.846949
9
Time step 1786
C -1.012844 0.005057 -0.231367
F -1.092755 0.116080 -1.533132
F -1.523257 1.028108 0.318891
F -1.702304 -1.024549 0.043964
S 0.929619 -0.114400 0.227089
O 0.944152 -0.330822 1.750789
O 1.716668 -1.092076 -0.508643
O 1.236910 1.408430 -0.079428
H 2.113026 1.543320 -0.841704
9
Time step 1787
C -1.013362 0.005801 -0.231339
F -1.092281 0.115921 -1.531937
F -1.522971 1.027205 0.317990
F -1.701038 -1.024031 0.043365
S 0.928709 -0.114253 0.227142
O 0.945135 -0.330984 1.751533
O 1.715516 -1.092395 -0.509079
O 1.237186 1.408947 -0.079850
H 2.108119 1.539448 -0.836174
9
Time step 1788
C -1.013860 0.006548 -0.231321
F -1.091804 0.115766 -1.530754
F -1.522686 1.026315 0.317098
F -1.699777 -1.023530 0.042775
S 0.927796 -0.114114 0.227214
O 0.946117 -0.331138 1.752254
O 1.714365 -1.092710 -0.509523
O 1.237484 1.409473 -0.080294
H 2.102886 1.535505 -0.830363
9
Time step 1789
C -1.014340 0.007292 -0.231315
F -1.091323 0.115615 -1.529584
F -1.522404 1.025438 0.316214
F -1.698523 -1.023045 0.042194
S 0.926878 -0.113982 0.227304
O 0.947097 -0.331286 1.752954
O 1.713213 -1.093021 -0.509976
O 1.237804 1.410009 -0.080759
H 2.097331 1.531498 -0.824278
9
Time step 1790
C -1.014801 0.008030 -0.231320
F -1.090838 0.115469 -1.528427
F -1.522125 1.024577 0.315340
F -1.697274 -1.022578 0.041623
S 0.925955 -0.113859 0.227411
O 0.948075 -0.331426 1.753631
O 1.712062 -1.093328 -0.510437
O 1.238146 1.410553 -0.081244
H 2.091461 1.527429 -0.817926
9
Time step 1791
C -1.015242 0.008757 -0.231337
F -1.090348 0.115328 -1.527282
F -1.521850 1.023733 0.314475
F -1.696030 -1.022127 0.041062
S 0.925028 -0.113742 0.227535
O 0.949052 -0.331559 1.754287
O 1.710909 -1.093632 -0.510906
O 1.238510 1.411105 -0.081748
H 2.085284 1.523305 -0.811317
9
Time step 1792
C -1.015661 0.009474 -0.231366
F -1.089854 0.115193 -1.526152
F -1.521581 1.022907 0.313620
F -1.694791 -1.021693 0.040511
S 0.924095 -0.113633 0.227677
O 0.950027 -0.331686 1.754922
O 1.709755 -1.093932 -0.511383
O 1.238896 1.411667 -0.082272
H 2.078812 1.519128 -0.804458
9
Time step 1793
C -1.016055 0.010181 -0.231408
F -1.089357 0.115062 -1.525034
F -1.521317 1.022098 0.312776
F -1.693556 -1.021275 0.039970
S 0.923159 -0.113531 0.227835
O 0.950999 -0.331807 1.755534
O 1.708599 -1.094229 -0.511867
O 1.239302 1.412237 -0.082814
H 2.072058 1.514901 -0.797362
9
Time step 1794
C -1.016424 0.010878 -0.231463
F -1.088857 0.114935 -1.523930
F -1.521059 1.021307 0.311943
F -1.692326 -1.020873 0.039438
S 0.922217 -0.113436 0.228010
O 0.951970 -0.331921 1.756125
O 1.707441 -1.094524 -0.512357
O 1.239729 1.412815 -0.083374
H 2.065034 1.510629 -0.790038
9
Time step 1795
C -1.016769 0.011569 -0.231532
F -1.088353 0.114811 -1.522839
F -1.520806 1.020532 0.311120
F -1.691100 -1.020488 0.038915
S 0.921271 -0.113348 0.228201
O 0.952940 -0.332031 1.756695
O 1.706281 -1.094815 -0.512854
O 1.240174 1.413401 -0.083951
H 2.057758 1.506313 -0.782497
9
Time step 1796
C -1.017089 0.012255 -0.231616
F -1.087847 0.114692 -1.521761
F -1.520559 1.019776 0.310310
F -1.689879 -1.020121 0.038402
S 0.920320 -0.113266 0.228409
O 0.953908 -0.332135 1.757243
O 1.705119 -1.095103 -0.513356
O 1.240637 1.413995 -0.084545
H 2.050248 1.501957 -0.774754
9
Time step 1797
C -1.017387 0.012934 -0.231713
F -1.087336 0.114576 -1.520697
F -1.520316 1.019038 0.309510
F -1.688663 -1.019773 0.037900
S 0.919364 -0.113191 0.228632
O 0.954874 -0.332233 1.757769
O 1.703956 -1.095388 -0.513865
O 1.241115 1.414596 -0.085154
H 2.042522 1.497567 -0.766821
9
Time step 1798
C -1.017663 0.013607 -0.231824
F -1.086820 0.114464 -1.519649
F -1.520078 1.018319 0.308723
F -1.687454 -1.019445 0.037408
S 0.918404 -0.113122 0.228873
O 0.955839 -0.332327 1.758274
O 1.702790 -1.095669 -0.514379
O 1.241608 1.415203 -0.085777
H 2.034605 1.493147 -0.758718
9
Time step 1799
C -1.017915 0.014271 -0.231946
F -1.086300 0.114357 -1.518617
F -1.519845 1.017621 0.307946
F -1.686251 -1.019137 0.036927
S 0.917440 -0.113060 0.229129
O 0.956802 -0.332414 1.758756
O 1.701624 -1.095946 -0.514900
O 1.242114 1.415817 -0.086412
H 2.026521 1.488701 -0.750467
9
Time step 1800
C -1.018141 0.014926 -0.232079
F -1.085777 0.114254 -1.517603
F -1.519619 1.016943 0.307182
F -1.685055 -1.018849 0.036458
S 0.916473 -0.113006 0.229402
O 0.957763 -0.332496 1.759217
O 1.700456 -1.096219 -0.515428
O 1.242633 1.416438 -0.087057
H 2.018300 1.484236 -0.742094
9
Time step 1801
C -1.018339 0.015569 -0.232222
F -1.085251 0.114156 -1.516608
F -1.519400 1.016287 0.306429
F -1.683866 -1.018580 0.036000
S 0.915501 -0.112960 0.229692
O 0.958722 -0.332571 1.759656
O 1.699286 -1.096486 -0.515963
O 1.243161 1.417064 -0.087712
H 2.009972 1.479756 -0.733630
9
Time step 1802
C -1.018509 0.016200 -0.232376
F -1.084722 0.114064 -1.515631
F -1.519189 1.015653 0.305690
F -1.682684 -1.018331 0.035554
S 0.914527 -0.112922 0.229999
O 0.959678 -0.332640 1.760073
O 1.698115 -1.096749 -0.516505
O 1.243698 1.417698 -0.088374
H 2.001576 1.475266 -0.725107
9
Time step 1803
C -1.018649 0.016820 -0.232540
F -1.084191 0.113976 -1.514673
F -1.518985 1.015039 0.304963
F -1.681510 -1.018101 0.035118
S 0.913548 -0.112894 0.230324
O 0.960631 -0.332702 1.760467
O 1.696943 -1.097005 -0.517053
O 1.244242 1.418338 -0.089041
H 1.993149 1.470770 -0.716562
9
Time step 1804
C -1.018761 0.017428 -0.232717
F -1.083657 0.113894 -1.513733
F -1.518789 1.014447 0.304249
F -1.680341 -1.017891 0.034695
S 0.912566 -0.112876 0.230666
O 0.961580 -0.332757 1.760839
O 1.695769 -1.097257 -0.517608
O 1.244789 1.418985 -0.089712
H 1.984734 1.466271 -0.708033
9
Time step 1805
C -1.018847 0.018027 -0.232905
F -1.083120 0.113817 -1.512811
F -1.518599 1.013875 0.303549
F -1.679180 -1.017700 0.034282
S 0.911581 -0.112867 0.231025
O 0.962525 -0.332804 1.761188
O 1.694594 -1.097502 -0.518169
O 1.245336 1.419639 -0.090385
H 1.976378 1.461775 -0.699556
9
Time step 1806
C -1.018907 0.018616 -0.233104
F -1.082578 0.113746 -1.511907
F -1.518417 1.013324 0.302861
F -1.678025 -1.017529 0.033881
S 0.910591 -0.112868 0.231402
O 0.963467 -0.332845 1.761514
O 1.693418 -1.097742 -0.518736
O 1.245881 1.420299 -0.091057
H 1.968131 1.457286 -0.691171
9
Time step 1807
C -1.018941 0.019195 -0.233312
F -1.082033 0.113680 -1.511022
F -1.518242 1.012793 0.302187
F -1.676877 -1.017379 0.033491
S 0.909599 -0.112878 0.231797
O 0.964405 -0.332878 1.761816
O 1.692240 -1.097977 -0.519309
O 1.246420 1.420964 -0.091725
H 1.960046 1.452810 -0.682919
9
Time step 1808
C -1.018949 0.019766 -0.233530
F -1.081483 0.113619 -1.510156
F -1.518075 1.012284 0.301526
F -1.675737 -1.017249 0.033112
S 0.908604 -0.112897 0.232209
O 0.965341 -0.332905 1.762094
O 1.691060 -1.098207 -0.519888
O 1.246950 1.421634 -0.092387
H 1.952179 1.448352 -0.674843
9
Time step 1809
C -1.018929 0.020325 -0.233757
F -1.080930 0.113563 -1.509309
F -1.517917 1.011796 0.300878
F -1.674605 -1.017139 0.032744
S 0.907606 -0.112925 0.232639
O 0.966274 -0.332924 1.762347
O 1.689878 -1.098431 -0.520473
O 1.247467 1.422308 -0.093038
H 1.944591 1.443919 -0.666989
9
Time step 1810
C -1.018881 0.020873 -0.233994
F -1.080375 0.113512 -1.508483
F -1.517768 1.011330 0.300244
F -1.673480 -1.017049 0.032387
S 0.906607 -0.112961 0.233086
O 0.967205 -0.332935 1.762576
O 1.688693 -1.098649 -0.521064
O 1.247967 1.422984 -0.093676
H 1.937345 1.439517 -0.659409
9
Time step 1811
C -1.018806 0.021406 -0.234242
F -1.079816 0.113465 -1.507677
F -1.517627 1.010889 0.299625
F -1.672363 -1.016978 0.032040
S 0.905605 -0.113006 0.233552
O 0.968133 -0.332939 1.762781
O 1.687505 -1.098860 -0.521660
O 1.248446 1.423661 -0.094296
H 1.930505 1.435152 -0.652155
9
Time step 1812
C -1.018703 0.021921 -0.234502
F -1.079254 0.113423 -1.506892
F -1.517494 1.010472 0.299020
F -1.671254 -1.016928 0.031705
S 0.904602 -0.113060 0.234036
O 0.969059 -0.332934 1.762962
O 1.686313 -1.099065 -0.522262
O 1.248899 1.424340 -0.094896
H 1.924137 1.430829 -0.645281
9
Time step 1813
C -1.018571 0.022418 -0.234774
F -1.078689 0.113387 -1.506129
F -1.517369 1.010080 0.298432
F -1.670153 -1.016899 0.031380
S 0.903597 -0.113122 0.234538
O 0.969982 -0.332922 1.763120
O 1.685118 -1.099263 -0.522870
O 1.249321 1.425019 -0.095473
H 1.918306 1.426549 -0.638843
9
Time step 1814
C -1.018412 0.022897 -0.235057
F -1.078121 0.113356 -1.505387
F -1.517251 1.009714 0.297859
F -1.669061 -1.016890 0.031067
S 0.902591 -0.113191 0.235057
O 0.970902 -0.332903 1.763255
O 1.683918 -1.099454 -0.523483
O 1.249710 1.425699 -0.096024
H 1.913077 1.422314 -0.632892
9
Time step 1815
C -1.018224 0.023360 -0.235351
F -1.077548 0.113332 -1.504667
F -1.517141 1.009373 0.297300
F -1.667978 -1.016903 0.030766
S 0.901584 -0.113269 0.235594
O 0.971818 -0.332877 1.763367
O 1.682714 -1.099638 -0.524102
O 1.250059 1.426379 -0.096545
H 1.908509 1.418123 -0.627478
9
Time step 1816
C -1.018008 0.023809 -0.235653
F -1.076970 0.113312 -1.503971
F -1.517040 1.009056 0.296757
F -1.666903 -1.016939 0.030477
S 0.900575 -0.113354 0.236147
O 0.972731 -0.332843 1.763458
O 1.681506 -1.099816 -0.524726
O 1.250368 1.427060 -0.097034
H 1.904662 1.413972 -0.622646
9
Time step 1817
C -1.017763 0.024245 -0.235964
F -1.076388 0.113299 -1.503298
F -1.516946 1.008763 0.296229
F -1.665836 -1.016996 0.030200
S 0.899565 -0.113448 0.236717
O 0.973640 -0.332804 1.763527
O 1.680294 -1.099987 -0.525356
O 1.250631 1.427742 -0.097489
H 1.901586 1.409855 -0.618436
9
Time step 1818
C -1.017491 0.024670 -0.236284
F -1.075801 0.113291 -1.502648
F -1.516861 1.008494 0.295717
F -1.664777 -1.017076 0.029936
S 0.898553 -0.113549 0.237304
O 0.974545 -0.332758 1.763574
O 1.679078 -1.100151 -0.525990
O 1.250847 1.428426 -0.097907
H 1.899328 1.405764 -0.614880
9
Time step 1819
C -1.017192 0.025081 -0.236613
F -1.075210 0.113288 -1.502022
F -1.516784 1.008250 0.295221
F -1.663725 -1.017178 0.029685
S 0.897539 -0.113657 0.237906
O 0.975445 -0.332706 1.763599
O 1.677857 -1.100310 -0.526629
O 1.251013 1.429112 -0.098287
H 1.897926 1.401693 -0.612007
9
Time step 1820
C -1.016865 0.025477 -0.236953
F -1.074613 0.113290 -1.501418
F -1.516716 1.008031 0.294743
F -1.662680 -1.017302 0.029446
S 0.896524 -0.113773 0.238524
O 0.976341 -0.332647 1.763601
O 1.676633 -1.100463 -0.527272
O 1.251128 1.429801 -0.098627
H 1.897411 1.397632 -0.609837
9
Time step 1821
C -1.016509 0.025854 -0.237304
F -1.074013 0.113299 -1.500838
F -1.516658 1.007838 0.294281
F -1.661641 -1.017446 0.029219
S 0.895506 -0.113897 0.239157
O 0.977233 -0.332582 1.763581
O 1.675406 -1.100610 -0.527919
O 1.251189 1.430494 -0.098928
H 1.897805 1.393575 -0.608384
9
Time step 1822
C -1.016124 0.026210 -0.237665
F -1.073408 0.113314 -1.500280
F -1.516609 1.007672 0.293836
F -1.660610 -1.017612 0.029004
S 0.894487 -0.114029 0.239807
O 0.978121 -0.332510 1.763539
O 1.674175 -1.100750 -0.528570
O 1.251196 1.431189 -0.099188
H 1.899116 1.389515 -0.607652
9
Time step 1823
C -1.015707 0.026544 -0.238034
F -1.072799 0.113336 -1.499746
F -1.516570 1.007535 0.293408
F -1.659587 -1.017798 0.028801
S 0.893467 -0.114168 0.240474
O 0.979004 -0.332432 1.763474
O 1.672941 -1.100884 -0.529225
O 1.251149 1.431888 -0.099409
H 1.901344 1.385448 -0.607636
9
Time step 1824
C -1.015259 0.026856 -0.238409
F -1.072187 0.113365 -1.499237
F -1.516543 1.007425 0.292996
F -1.658571 -1.018006 0.028609
S 0.892446 -0.114316 0.241156
O 0.979883 -0.332349 1.763388
O 1.671703 -1.101009 -0.529884
O 1.251050 1.432590 -0.099592
H 1.904476 1.381371 -0.608322
9
Time step 1825
C -1.014780 0.027151 -0.238789
F -1.071572 0.113401 -1.498753
F -1.516526 1.007343 0.292600
F -1.657564 -1.018236 0.028430
S 0.891424 -0.114471 0.241856
O 0.980757 -0.332260 1.763280
O 1.670463 -1.101127 -0.530547
O 1.250899 1.433296 -0.099738
H 1.908485 1.377282 -0.609688
9
Time step 1826
C -1.014271 0.027430 -0.239174
F -1.070954 0.113441 -1.498297
F -1.516520 1.007288 0.292221
F -1.656564 -1.018489 0.028263
S 0.890401 -0.114635 0.242572
O 0.981628 -0.332166 1.763152
O 1.669219 -1.101236 -0.531215
O 1.250701 1.434005 -0.099849
H 1.913335 1.373178 -0.611703
9
Time step 1827
C -1.013733 0.027694 -0.239564
F -1.070332 0.113487 -1.497867
F -1.516524 1.007260 0.291858
F -1.655572 -1.018764 0.028108
S 0.889376 -0.114808 0.243304
O 0.982494 -0.332067 1.763003
O 1.667972 -1.101337 -0.531888
O 1.250458 1.434717 -0.099928
H 1.918980 1.369059 -0.614329
9
Time step 1828
C -1.013165 0.027945 -0.239960
F -1.069707 0.113537 -1.497464
F -1.516539 1.007258 0.291511
F -1.654587 -1.019061 0.027964
S 0.888350 -0.114988 0.244052
O 0.983357 -0.331962 1.762833
O 1.666722 -1.101429 -0.532564
O 1.250174 1.435433 -0.099977
H 1.925369 1.364925 -0.617522
9
Time step 1829
C -1.012567 0.028179 -0.240364
F -1.069079 0.113592 -1.497086
F -1.516564 1.007283 0.291182
F -1.653611 -1.019379 0.027833
S 0.887322 -0.115176 0.244816
O 0.984216 -0.331852 1.762643
O 1.665468 -1.101513 -0.533244
O 1.249853 1.436153 -0.099998
H 1.932440 1.360775 -0.621236
9
Time step 1830
C -1.011940 0.028396 -0.240775
F -1.068448 0.113652 -1.496732
F -1.516599 1.007333 0.290869
F -1.652642 -1.019719 0.027713
S 0.886293 -0.115372 0.245595
O 0.985071 -0.331736 1.762432
O 1.664211 -1.101588 -0.533928
O 1.249500 1.436875 -0.099995
H 1.940131 1.356612 -0.625419
9
Time step 1831
C -1.011283 0.028594 -0.241191
F -1.067813 0.113717 -1.496403
F -1.516644 1.007410 0.290572
F -1.651683 -1.020080 0.027604
S 0.885262 -0.115575 0.246387
O 0.985923 -0.331614 1.762201
O 1.662949 -1.101655 -0.534614
O 1.249118 1.437600 -0.099968
H 1.948376 1.352442 -0.630021
9
Time step 1832
C -1.010598 0.028772 -0.241612
F -1.067174 0.113787 -1.496100
F -1.516699 1.007513 0.290291
F -1.650732 -1.020463 0.027507
S 0.884229 -0.115784 0.247194
O 0.986773 -0.331486 1.761950
O 1.661683 -1.101713 -0.535304
O 1.248711 1.438328 -0.099923
H 1.957108 1.348271 -0.634987
9
Time step 1833
C -1.009887 0.028931 -0.242034
F -1.066531 0.113864 -1.495823
F -1.516764 1.007641 0.290024
F -1.649789 -1.020866 0.027423
S 0.883197 -0.116001 0.248014
O 0.987619 -0.331353 1.761679
O 1.660412 -1.101764 -0.535995
O 1.248283 1.439056 -0.099861
H 1.966258 1.344109 -0.640267
9
Time step 1834
C -1.009151 0.029072 -0.242457
F -1.065883 0.113947 -1.495574
F -1.516837 1.007794 0.289772
F -1.648854 -1.021290 0.027351
S 0.882164 -0.116224 0.248847
O 0.988462 -0.331215 1.761388
O 1.659135 -1.101806 -0.536689
O 1.247838 1.439785 -0.099785
H 1.975761 1.339964 -0.645808
9
Time step 1835
C -1.008389 0.029197 -0.242881
F -1.065231 0.114035 -1.495354
F -1.516920 1.007972 0.289535
F -1.647928 -1.021736 0.027291
S 0.881131 -0.116454 0.249694
O 0.989303 -0.331070 1.761077
O 1.657853 -1.101840 -0.537386
O 1.247380 1.440513 -0.099700
H 1.985553 1.335846 -0.651565
9
Time step 1836
C -1.007601 0.029306 -0.243305
F -1.064575 0.114129 -1.495162
F -1.517011 1.008173 0.289312
F -1.647011 -1.022203 0.027244
S 0.880098 -0.116690 0.250554
O 0.990139 -0.330920 1.760747
O 1.656564 -1.101865 -0.538084
O 1.246911 1.441241 -0.099606
H 1.995573 1.331761 -0.657491
9
Time step 1837
C -1.006783 0.029400 -0.243730
F -1.063916 0.114228 -1.494998
F -1.517111 1.008399 0.289106
F -1.646101 -1.022691 0.027208
S 0.879067 -0.116934 0.251427
O 0.990972 -0.330764 1.760398
O 1.655269 -1.101881 -0.538785
O 1.246436 1.441965 -0.099508
H 2.005764 1.327715 -0.663546
9
Time step 1838
C -1.005935 0.029479 -0.244157
F -1.063254 0.114333 -1.494861
F -1.517222 1.008651 0.288915
F -1.645201 -1.023201 0.027183
S 0.878037 -0.117184 0.252314
O 0.991801 -0.330601 1.760029
O 1.653969 -1.101889 -0.539488
O 1.245957 1.442687 -0.099408
H 2.016072 1.323710 -0.669692
9
Time step 1839
C -1.005054 0.029541 -0.244587
F -1.062589 0.114444 -1.494750
F -1.517343 1.008928 0.288741
F -1.644308 -1.023732 0.027170
S 0.877008 -0.117442 0.253214
O 0.992625 -0.330432 1.759641
O 1.652662 -1.101888 -0.540192
O 1.245477 1.443404 -0.099309
H 2.026448 1.319751 -0.675893
9
Time step 1840
C -1.004145 0.029586 -0.245020
F -1.061920 0.114561 -1.494666
F -1.517475 1.009230 0.288582
F -1.643424 -1.024285 0.027167
S 0.875980 -0.117706 0.254127
O 0.993443 -0.330255 1.759234
O 1.651349 -1.101878 -0.540899
O 1.244999 1.444117 -0.099213
H 2.036844 1.315839 -0.682116
9
Time step 1841
C -1.003208 0.029615 -0.245455
F -1.061248 0.114686 -1.494608
F -1.517617 1.009558 0.288441
F -1.642545 -1.024860 0.027176
S 0.874955 -0.117978 0.255053
O 0.994256 -0.330071 1.758808
O 1.650030 -1.101860 -0.541609
O 1.244524 1.444825 -0.099121
H 2.047218 1.311979 -0.688329
9
Time step 1842
C -1.002249 0.029626 -0.245891
F -1.060569 0.114817 -1.494578
F -1.517768 1.009912 0.288315
F -1.641673 -1.025457 0.027197
S 0.873931 -0.118256 0.255992
O 0.995063 -0.329881 1.758362
O 1.648706 -1.101834 -0.542320
O 1.244057 1.445528 -0.099036
H 2.057531 1.308176 -0.694503
9
Time step 1843
C -1.001268 0.029620 -0.246327
F -1.059886 0.114956 -1.494577
F -1.517928 1.010290 0.288206
F -1.640807 -1.026073 0.027231
S 0.872909 -0.118541 0.256943
O 0.995864 -0.329684 1.757897
O 1.647376 -1.101799 -0.543034
O 1.243598 1.446226 -0.098959
H 2.067747 1.304437 -0.700610
9
Time step 1844
C -1.000264 0.029596 -0.246761
F -1.059196 0.115100 -1.494605
F -1.518097 1.010692 0.288113
F -1.639948 -1.026709 0.027277
S 0.871889 -0.118832 0.257907
O 0.996660 -0.329482 1.757412
O 1.646041 -1.101756 -0.543749
O 1.243149 1.446918 -0.098892
H 2.077836 1.300766 -0.706627
9
Time step 1845
C -0.999237 0.029553 -0.247194
F -1.058502 0.115250 -1.494661
F -1.518275 1.011119 0.288035
F -1.639095 -1.027363 0.027336
S 0.870870 -0.119129 0.258883
O 0.997450 -0.329275 1.756909
O 1.644701 -1.101705 -0.544467
O 1.242713 1.447604 -0.098835
H 2.087770 1.297170 -0.712531
9
Time step 1846
C -0.998183 0.029489 -0.247625
F -1.057803 0.115406 -1.494746
F -1.518463 1.011570 0.287974
F -1.638250 -1.028036 0.027406
S 0.869853 -0.119431 0.259870
O 0.998235 -0.329063 1.756387
O 1.643355 -1.101645 -0.545187
O 1.242290 1.448284 -0.098790
H 2.097524 1.293652 -0.718304
9
Time step 1847
C -0.997103 0.029406 -0.248055
F -1.057101 0.115567 -1.494858
F -1.518659 1.012045 0.287927
F -1.637413 -1.028727 0.027487
S 0.868839 -0.119739 0.260869
O 0.999014 -0.328846 1.755848
O 1.642005 -1.101577 -0.545908
O 1.241882 1.448957 -0.098757
H 2.107076 1.290215 -0.723928
9
Time step 1848
C -0.995997 0.029304 -0.248484
F -1.056395 0.115734 -1.494998
F -1.518865 1.012546 0.287895
F -1.636584 -1.029438 0.027580
S 0.867827 -0.120052 0.261880
O 0.999788 -0.328625 1.755293
O 1.640649 -1.101499 -0.546632
O 1.241490 1.449623 -0.098738
H 2.116404 1.286860 -0.729388
9
Time step 1849
C -0.994869 0.029184 -0.248912
F -1.055685 0.115907 -1.495165
F -1.519079 1.013070 0.287879
F -1.635762 -1.030167 0.027684
S 0.866818 -0.120370 0.262901
O 1.000556 -0.328398 1.754721
O 1.639287 -1.101413 -0.547358
O 1.241115 1.450282 -0.098734
H 2.125486 1.283588 -0.734668
9
Time step 1850
C -0.993721 0.029047 -0.249339
F -1.054971 0.116085 -1.495359
F -1.519300 1.013616 0.287877
F -1.634946 -1.030915 0.027800
S 0.865813 -0.120695 0.263932
O 1.001319 -0.328167 1.754135
O 1.637919 -1.101317 -0.548086
O 1.240759 1.450934 -0.098746
H 2.134304 1.280402 -0.739755
9
Time step 1851
C -0.992555 0.028893 -0.249764
F -1.054252 0.116269 -1.495582
F -1.519529 1.014184 0.287889
F -1.634136 -1.031681 0.027927
S 0.864811 -0.121025 0.264974
O 1.002076 -0.327930 1.753535
O 1.636544 -1.101211 -0.548815
O 1.240423 1.451578 -0.098774
H 2.142839 1.277303 -0.744637
9
Time step 1852
C -0.991371 0.028724 -0.250185
F -1.053530 0.116460 -1.495832
F -1.519765 1.014773 0.287914
F -1.633332 -1.032463 0.028065
S 0.863814 -0.121361 0.266026
O 1.002827 -0.327689 1.752922
O 1.635161 -1.101096 -0.549546
O 1.240108 1.452215 -0.098819
H 2.151076 1.274293 -0.749303
9
Time step 1853
C -0.990167 0.028539 -0.250601
F -1.052805 0.116655 -1.496110
F -1.520008 1.015381 0.287952
F -1.632535 -1.033262 0.028214
S 0.862822 -0.121703 0.267088
O 1.003573 -0.327444 1.752295
O 1.633771 -1.100970 -0.550279
O 1.239814 1.452844 -0.098881
H 2.159000 1.271375 -0.753746
9
Time step 1854
C -0.988943 0.028337 -0.251009
F -1.052077 0.116856 -1.496415
F -1.520259 1.016008 0.288002
F -1.631745 -1.034077 0.028372
S 0.861835 -0.122050 0.268158
O 1.004314 -0.327194 1.751656
O 1.632373 -1.100835 -0.551012
O 1.239542 1.453466 -0.098961
H 2.166601 1.268552 -0.757957
9
Time step 1855
C -0.987698 0.028119 -0.251410
F -1.051346 0.117062 -1.496747
F -1.520518 1.016656 0.288064
F -1.630963 -1.034909 0.028539
S 0.860853 -0.122402 0.269236
O 1.005049 -0.326940 1.751003
O 1.630966 -1.100689 -0.551746
O 1.239293 1.454080 -0.099057
H 2.173872 1.265827 -0.761933
9
Time step 1856
C -0.986433 0.027886 -0.251804
F -1.050612 0.117272 -1.497106
F -1.520783 1.017324 0.288137
F -1.630188 -1.035758 0.028717
S 0.859877 -0.122759 0.270323
O 1.005779 -0.326682 1.750338
O 1.629551 -1.100533 -0.552480
O 1.239067 1.454684 -0.099171
H 2.180806 1.263203 -0.765667
9
Time step 1857
C -0.985152 0.027640 -0.252192
F -1.049875 0.117488 -1.497492
F -1.521054 1.018013 0.288223
F -1.629419 -1.036627 0.028904
S 0.858905 -0.123121 0.271417
O 1.006504 -0.326419 1.749661
O 1.628127 -1.100366 -0.553214
O 1.238865 1.455279 -0.099301
H 2.187399 1.260682 -0.769156
9
Time step 1858
C -0.983856 0.027382 -0.252574
F -1.049134 0.117709 -1.497906
F -1.521332 1.018722 0.288321
F -1.628656 -1.037514 0.029103
S 0.857939 -0.123488 0.272518
O 1.007224 -0.326151 1.748971
O 1.626695 -1.100189 -0.553949
O 1.238685 1.455863 -0.099448
H 2.193647 1.258267 -0.772395
9
Time step 1859
C -0.982544 0.027114 -0.252952
F -1.048388 0.117934 -1.498348
F -1.521615 1.019450 0.288432
F -1.627898 -1.038419 0.029313
S 0.856976 -0.123859 0.273627
O 1.007938 -0.325879 1.748269
O 1.625256 -1.100002 -0.554683
O 1.238530 1.456435 -0.099612
H 2.199544 1.255957 -0.775383
9
Time step 1860
C -0.981217 0.026837 -0.253325
F -1.047639 0.118165 -1.498818
F -1.521904 1.020196 0.288556
F -1.627147 -1.039342 0.029535
S 0.856018 -0.124235 0.274742
O 1.008647 -0.325603 1.747556
O 1.623808 -1.099804 -0.555416
O 1.238398 1.456995 -0.099795
H 2.205086 1.253755 -0.778116
9
Time step 1861
C -0.979871 0.026550 -0.253692
F -1.046885 0.118400 -1.499315
F -1.522200 1.020958 0.288693
F -1.626401 -1.040281 0.029766
S 0.855065 -0.124615 0.275862
O 1.009352 -0.325323 1.746833
O 1.622354 -1.099596 -0.556148
O 1.238290 1.457544 -0.099996
H 2.210266 1.251658 -0.780592
9
Time step 1862
C -0.978506 0.026251 -0.254051
F -1.046128 0.118642 -1.499838
F -1.522504 1.021737 0.288842
F -1.625662 -1.041236 0.030007
S 0.854115 -0.124997 0.276989
O 1.010051 -0.325040 1.746099
O 1.620892 -1.099379 -0.556879
O 1.238207 1.458080 -0.100216
H 2.215079 1.249667 -0.782809
9
Time step 1863
C -0.977122 0.025941 -0.254399
F -1.045368 0.118889 -1.500387
F -1.522815 1.022532 0.289002
F -1.624930 -1.042207 0.030257
S 0.853171 -0.125383 0.278121
O 1.010746 -0.324753 1.745356
O 1.619423 -1.099152 -0.557608
O 1.238149 1.458604 -0.100456
H 2.219520 1.247779 -0.784767
9
Time step 1864
C -0.975722 0.025618 -0.254737
F -1.044603 0.119142 -1.500961
F -1.523133 1.023344 0.289173
F -1.624204 -1.043192 0.030515
S 0.852230 -0.125772 0.279257
O 1.011435 -0.324463 1.744603
O 1.617947 -1.098915 -0.558336
O 1.238114 1.459115 -0.100715
H 2.223585 1.245993 -0.786463
9
Time step 1865
C -0.974308 0.025283 -0.255063
F -1.043833 0.119402 -1.501560
F -1.523457 1.024172 0.289355
F -1.623483 -1.044194 0.030782
S 0.851295 -0.126165 0.280399
O 1.012120 -0.324169 1.743841
O 1.616463 -1.098668 -0.559062
O 1.238104 1.459614 -0.100994
H 2.227271 1.244306 -0.787896
9
Time step 1866
C -0.972883 0.024937 -0.255379
F -1.043058 0.119667 -1.502185
F -1.523787 1.025017 0.289547
F -1.622765 -1.045211 0.031058
S 0.850364 -0.126560 0.281545
O 1.012800 -0.323872 1.743069
O 1.614973 -1.098411 -0.559788
O 1.238117 1.460099 -0.101291
H 2.230574 1.242720 -0.789063
9
Time step 1867
C -0.971449 0.024581 -0.255687
F -1.042278 0.119937 -1.502836
F -1.524122 1.025878 0.289750
F -1.622051 -1.046242 0.031344
S 0.849438 -0.126959 0.282695
O 1.013475 -0.323571 1.742289
O 1.613475 -1.098143 -0.560512
O 1.238155 1.460571 -0.101607
H 2.233495 1.241234 -0.789961
9
Time step 1868
C -0.970004 0.024215 -0.255987
F -1.041494 0.120213 -1.503512
F -1.524461 1.026755 0.289964
F -1.621340 -1.047288 0.031641
S 0.848517 -0.127362 0.283851
O 1.014145 -0.323267 1.741499
O 1.611969 -1.097865 -0.561235
O 1.238216 1.461029 -0.101940
H 2.236029 1.239850 -0.790591
9
Time step 1869
C -0.968547 0.023837 -0.256281
F -1.040708 0.120493 -1.504215
F -1.524807 1.027647 0.290189
F -1.620634 -1.048347 0.031948
S 0.847601 -0.127767 0.285010
O 1.014810 -0.322960 1.740700
O 1.610457 -1.097578 -0.561957
O 1.238302 1.461474 -0.102291
H 2.238177 1.238569 -0.790950
9
Time step 1870
C -0.967076 0.023448 -0.256568
F -1.039918 0.120778 -1.504942
F -1.525158 1.028553 0.290423
F -1.619931 -1.049418 0.032264
S 0.846691 -0.128175 0.286174
O 1.015469 -0.322650 1.739893
O 1.608937 -1.097282 -0.562678
O 1.238412 1.461906 -0.102659
H 2.239935 1.237393 -0.791040
9
Time step 1871
C -0.965593 0.023048 -0.256847
F -1.039126 0.121068 -1.505693
F -1.525514 1.029472 0.290666
F -1.619234 -1.050502 0.032590
S 0.845787 -0.128585 0.287340
O 1.016124 -0.322337 1.739079
O 1.607410 -1.096977 -0.563397
O 1.238547 1.462326 -0.103044
H 2.241302 1.236322 -0.790863
9
Time step 1872
C -0.964103 0.022637 -0.257116
F -1.038330 0.121364 -1.506467
F -1.525875 1.030405 0.290918
F -1.618541 -1.051599 0.032925
S 0.844890 -0.128996 0.288508
O 1.016773 -0.322021 1.738259
O 1.605875 -1.096664 -0.564114
O 1.238707 1.462733 -0.103445
H 2.242276 1.235358 -0.790419
9
Time step 1873
C -0.962608 0.022218 -0.257375
F -1.037530 0.121665 -1.507264
F -1.526239 1.031349 0.291179
F -1.617853 -1.052709 0.033268
S 0.843999 -0.129409 0.289678
O 1.017416 -0.321702 1.737435
O 1.604333 -1.096344 -0.564830
O 1.238892 1.463127 -0.103863
H 2.242856 1.234503 -0.789711
9
Time step 1874
C -0.961113 0.021792 -0.257622
F -1.036725 0.121970 -1.508083
F -1.526606 1.032304 0.291447
F -1.617167 -1.053832 0.033619
S 0.843116 -0.129824 0.290848
O 1.018054 -0.321379 1.736607
O 1.602783 -1.096015 -0.565545
O 1.239101 1.463508 -0.104298
H 2.243040 1.233757 -0.788739
9
Time step 1875
C -0.959620 0.021361 -0.257856
F -1.035914 0.122280 -1.508925
F -1.526975 1.033270 0.291722
F -1.616484 -1.054966 0.033979
S 0.842239 -0.130241 0.292018
O 1.018685 -0.321054 1.735776
O 1.601226 -1.095679 -0.566258
O 1.239336 1.463876 -0.104749
H 2.242828 1.233123 -0.787503
9
Time step 1876
C -0.958127 0.020924 -0.258076
F -1.035098 0.122594 -1.509790
F -1.527346 1.034245 0.292006
F -1.615804 -1.056112 0.034347
S 0.841371 -0.130661 0.293188
O 1.019310 -0.320724 1.734943
O 1.599660 -1.095334 -0.566972
O 1.239595 1.464231 -0.105217
H 2.242219 1.232604 -0.786003
9
Time step 1877
C -0.956632 0.020481 -0.258284
F -1.034278 0.122911 -1.510679
F -1.527719 1.035229 0.292297
F -1.615127 -1.057268 0.034723
S 0.840510 -0.131083 0.294359
O 1.019929 -0.320391 1.734107
O 1.598086 -1.094980 -0.567684
O 1.239879 1.464573 -0.105701
H 2.241214 1.232203 -0.784239
9
Time step 1878
C -0.955132 0.020029 -0.258479
F -1.033455 0.123233 -1.511590
F -1.528096 1.036224 0.292595
F -1.614453 -1.058434 0.035106
S 0.839657 -0.131508 0.295529
O 1.020541 -0.320055 1.733269
O 1.596504 -1.094618 -0.568395
O 1.240187 1.464901 -0.106201
H 2.239814 1.231921 -0.782211
9
Time step 1879
C -0.953627 0.019568 -0.258664
F -1.032629 0.123559 -1.512523
F -1.528474 1.037228 0.292900
F -1.613784 -1.059611 0.035498
S 0.838812 -0.131935 0.296701
O 1.021147 -0.319716 1.732429
O 1.594911 -1.094246 -0.569105
O 1.240519 1.465217 -0.106718
H 2.238019 1.231759 -0.779920
9
Time step 1880
C -0.952118 0.019098 -0.258839
F -1.031800 0.123889 -1.513477
F -1.528855 1.038244 0.293213
F -1.613119 -1.060798 0.035897
S 0.837976 -0.132363 0.297873
O 1.021746 -0.319374 1.731586
O 1.593310 -1.093865 -0.569812
O 1.240875 1.465519 -0.107251
H 2.235834 1.231715 -0.777369
9
Time step 1881
C -0.950606 0.018619 -0.259007
F -1.030968 0.124223 -1.514450
F -1.529236 1.039269 0.293532
F -1.612457 -1.061997 0.036303
S 0.837148 -0.132794 0.299045
O 1.022339 -0.319030 1.730740
O 1.591698 -1.093473 -0.570518
O 1.241255 1.465808 -0.107800
H 2.233263 1.231784 -0.774558
9
Time step 1882
C -0.949095 0.018134 -0.259167
F -1.030133 0.124561 -1.515443
F -1.529618 1.040303 0.293858
F -1.611797 -1.063206 0.036717
S 0.836329 -0.133227 0.300216
O 1.022926 -0.318683 1.729894
O 1.590076 -1.093072 -0.571220
O 1.241658 1.466084 -0.108365
H 2.230308 1.231962 -0.771491
9
Time step 1883
C -0.947586 0.017644 -0.259319
F -1.029295 0.124904 -1.516454
F -1.530000 1.041345 0.294190
F -1.611139 -1.064425 0.037137
S 0.835519 -0.133662 0.301386
O 1.023507 -0.318334 1.729048
O 1.588445 -1.092660 -0.571920
O 1.242084 1.466345 -0.108947
H 2.226976 1.232244 -0.768170
9
Time step 1884
C -0.946079 0.017151 -0.259462
F -1.028453 0.125250 -1.517484
F -1.530382 1.042394 0.294529
F -1.610483 -1.065654 0.037564
S 0.834717 -0.134099 0.302554
O 1.024081 -0.317981 1.728204
O 1.586803 -1.092236 -0.572616
O 1.242531 1.466592 -0.109545
H 2.223268 1.232627 -0.764600
9
Time step 1885
C -0.944573 0.016656 -0.259594
F -1.027608 0.125600 -1.518532
F -1.530764 1.043448 0.294874
F -1.609830 -1.066892 0.037998
S 0.833923 -0.134539 0.303719
O 1.024650 -0.317626 1.727362
O 1.585152 -1.091802 -0.573310
O 1.243000 1.466824 -0.110159
H 2.219188 1.233109 -0.760782
9
Time step 1886
C -0.943068 0.016158 -0.259714
F -1.026758 0.125953 -1.519598
F -1.531146 1.044508 0.295224
F -1.609179 -1.068138 0.038437
S 0.833138 -0.134980 0.304880
O 1.025213 -0.317269 1.726525
O 1.583492 -1.091356 -0.574001
O 1.243491 1.467041 -0.110789
H 2.214740 1.233691 -0.756722
9
Time step 1887
C -0.941565 0.015656 -0.259821
F -1.025904 0.126311 -1.520681
F -1.531530 1.045574 0.295578
F -1.608532 -1.069393 0.038882
S 0.832361 -0.135422 0.306037
O 1.025772 -0.316910 1.725693
O 1.581823 -1.090898 -0.574689
O 1.244003 1.467242 -0.111434
H 2.209925 1.234373 -0.752424
9
Time step 1888
C -0.940064 0.015151 -0.259916
F -1.025045 0.126672 -1.521782
F -1.531915 1.046645 0.295938
F -1.607889 -1.070655 0.039333
S 0.831592 -0.135866 0.307188
O 1.026326 -0.316551 1.724867
O 1.580146 -1.090430 -0.575373
O 1.244535 1.467428 -0.112095
H 2.204748 1.235157 -0.747891
9
Time step 1889
C -0.938569 0.014642 -0.260000
F -1.024181 0.127036 -1.522899
F -1.532300 1.047723 0.296303
F -1.607248 -1.071926 0.039790
S 0.830831 -0.136310 0.308334
O 1.026877 -0.316191 1.724046
O 1.578460 -1.089950 -0.576052
O 1.245088 1.467600 -0.112772
H 2.199214 1.236043 -0.743127
9
Time step 1890
C -0.937082 0.014130 -0.260075
F -1.023311 0.127405 -1.524034
F -1.532686 1.048806 0.296672
F -1.606610 -1.073204 0.040254
S 0.830078 -0.136755 0.309475
O 1.027424 -0.315831 1.723232
O 1.576765 -1.089461 -0.576728
O 1.245661 1.467756 -0.113463
H 2.193331 1.237031 -0.738137
9
Time step 1891
C -0.935602 0.013615 -0.260141
F -1.022436 0.127777 -1.525184
F -1.533072 1.049893 0.297047
F -1.605973 -1.074489 0.040725
S 0.829333 -0.137201 0.310609
O 1.027967 -0.315470 1.722425
O 1.575063 -1.088960 -0.577398
O 1.246254 1.467897 -0.114169
H 2.187105 1.238120 -0.732924
9
Time step 1892
C -0.934130 0.013097 -0.260198
F -1.021557 0.128153 -1.526351
F -1.533459 1.050984 0.297426
F -1.605337 -1.075779 0.041202
S 0.828597 -0.137648 0.311737
O 1.028506 -0.315110 1.721624
O 1.573353 -1.088451 -0.578064
O 1.246867 1.468023 -0.114888
H 2.180546 1.239308 -0.727493
9
Time step 1893
C -0.932665 0.012578 -0.260248
F -1.020675 0.128533 -1.527533
F -1.533846 1.052078 0.297809
F -1.604701 -1.077076 0.041686
S 0.827868 -0.138094 0.312858
O 1.029041 -0.314748 1.720832
O 1.571634 -1.087932 -0.578726
O 1.247498 1.468133 -0.115619
H 2.173663 1.240594 -0.721849
9
Time step 1894
C -0.931206 0.012056 -0.260289
F -1.019790 0.128917 -1.528729
F -1.534233 1.053174 0.298196
F -1.604065 -1.078377 0.042176
S 0.827148 -0.138541 0.313973
O 1.029570 -0.314385 1.720048
O 1.569907 -1.087404 -0.579385
O 1.248148 1.468228 -0.116363
H 2.166467 1.241978 -0.715999
9
Time step 1895
C -0.929754 0.011532 -0.260321
F -1.018902 0.129304 -1.529939
F -1.534619 1.054272 0.298586
F -1.603429 -1.079684 0.042671
S 0.826436 -0.138987 0.315080
O 1.030095 -0.314021 1.719273
O 1.568170 -1.086867 -0.580040
O 1.248815 1.468306 -0.117118
H 2.158969 1.243458 -0.709950
9
Time step 1896
C -0.928313 0.011009 -0.260343
F -1.018011 0.129694 -1.531162
F -1.535004 1.055373 0.298978
F -1.602793 -1.080996 0.043172
S 0.825733 -0.139433 0.316179
O 1.030615 -0.313657 1.718509
O 1.566425 -1.086322 -0.580692
O 1.249500 1.468369 -0.117884
H 2.151181 1.245036 -0.703711
9
Time step 1897
C -0.926883 0.010487 -0.260354
F -1.017117 0.130087 -1.532398
F -1.535388 1.056475 0.299373
F -1.602155 -1.082315 0.043678
S 0.825038 -0.139877 0.317270
O 1.031129 -0.313293 1.717756
O 1.564671 -1.085769 -0.581340
O 1.250200 1.468416 -0.118659
H 2.143119 1.246711 -0.697294
9
Time step 1898
C -0.925467 0.009969 -0.260356
F -1.016218 0.130481 -1.533647
F -1.535769 1.057579 0.299770
F -1.601516 -1.083639 0.044189
S 0.824352 -0.140322 0.318351
O 1.031638 -0.312928 1.717014
O 1.562907 -1.085206 -0.581985
O 1.250914 1.468448 -0.119444
H 2.134799 1.248483 -0.690711
9
Time step 1899
C -0.924066 0.009454 -0.260346
F -1.015316 0.130877 -1.534908
F -1.536148 1.058684 0.300170
F -1.600876 -1.084969 0.044705
S 0.823675 -0.140766 0.319423
O 1.032141 -0.312563 1.716285
O 1.561134 -1.084636 -0.582625
O 1.251642 1.468466 -0.120237
H 2.126239 1.250348 -0.683975
9
Time step 1900
C -0.922680 0.008943 -0.260325
F -1.014409 0.131275 -1.536183
F -1.536524 1.059789 0.300572
F -1.600235 -1.086304 0.045225
S 0.823008 -0.141210 0.320486
O 1.032640 -0.312198 1.715567
O 1.559352 -1.084057 -0.583262
O 1.252382 1.468470 -0.121038
H 2.117462 1.252304 -0.677103
9
Time step 1901
C -0.921310 0.008433 -0.260292
F -1.013499 0.131676 -1.537470
F -1.536897 1.060894 0.300976
F -1.599593 -1.087642 0.045749
S 0.822350 -0.141654 0.321539
O 1.033133 -0.311832 1.714863
O 1.557561 -1.083470 -0.583894
O 1.253132 1.468460 -0.121844
H 2.108491 1.254345 -0.670112
9
Time step 1902
C -0.919954 0.007924 -0.260246
F -1.012586 0.132079 -1.538770
F -1.537267 1.061999 0.301382
F -1.598952 -1.088984 0.046278
S 0.821701 -0.142097 0.322582
O 1.033622 -0.311466 1.714170
O 1.555761 -1.082876 -0.584522
O 1.253890 1.468437 -0.122656
H 2.099353 1.256466 -0.663021
9
Time step 1903
C -0.918614 0.007413 -0.260190
F -1.011668 0.132485 -1.540081
F -1.537634 1.063103 0.301789
F -1.598310 -1.090329 0.046810
S 0.821062 -0.142540 0.323616
O 1.034106 -0.311099 1.713491
O 1.553954 -1.082273 -0.585146
O 1.254654 1.468401 -0.123472
H 2.090080 1.258660 -0.655850
9
Time step 1904
C -0.917290 0.006901 -0.260125
F -1.010746 0.132895 -1.541403
F -1.537998 1.064207 0.302198
F -1.597669 -1.091677 0.047348
S 0.820432 -0.142983 0.324639
O 1.034587 -0.310731 1.712825
O 1.552138 -1.081663 -0.585765
O 1.255422 1.468353 -0.124291
H 2.080708 1.260917 -0.648622
9
Time step 1905
C -0.915983 0.006390 -0.260052
F -1.009820 0.133308 -1.542734
F -1.538358 1.065309 0.302608
F -1.597029 -1.093028 0.047889
S 0.819811 -0.143425 0.325652
O 1.035062 -0.310363 1.712173
O 1.550314 -1.081045 -0.586380
O 1.256192 1.468293 -0.125110
H 2.071277 1.263228 -0.641362
9
Time step 1906
C -0.914694 0.005882 -0.259974
F -1.008890 0.133724 -1.544074
F -1.538715 1.066410 0.303019
F -1.596387 -1.094384 0.048436
S 0.819199 -0.143866 0.326655
O 1.035534 -0.309995 1.711536
O 1.548482 -1.080419 -0.586991
O 1.256961 1.468221 -0.125929
H 2.061833 1.265581 -0.634099
9
Time step 1907
C -0.913424 0.005377 -0.259893
F -1.007955 0.134143 -1.545421
F -1.539069 1.067508 0.303432
F -1.595745 -1.095742 0.048988
S 0.818596 -0.144306 0.327646
O 1.036001 -0.309627 1.710915
O 1.546641 -1.079785 -0.587598
O 1.257726 1.468139 -0.126745
H 2.052425 1.267964 -0.626865
9
Time step 1908
C -0.912172 0.004878 -0.259809
F -1.007016 0.134562 -1.546775
F -1.539419 1.068605 0.303846
F -1.595101 -1.097104 0.049544
S 0.818003 -0.144744 0.328625
O 1.036464 -0.309259 1.710311
O 1.544792 -1.079142 -0.588200
O 1.258484 1.468045 -0.127556
H 2.043108 1.270363 -0.619694
9
Time step 1909
C -0.910939 0.004383 -0.259723
F -1.006074 0.134984 -1.548135
F -1.539766 1.069699 0.304262
F -1.594456 -1.098468 0.050103
S 0.817418 -0.145182 0.329592
O 1.036923 -0.308892 1.709726
O 1.542933 -1.078490 -0.588796
O 1.259231 1.467942 -0.128358
H 2.033936 1.272764 -0.612624
9
Time step 1910
C -0.909726 0.003893 -0.259635
F -1.005128 0.135406 -1.549500
F -1.540109 1.070791 0.304678
F -1.593809 -1.099835 0.050666
S 0.816843 -0.145619 0.330544
O 1.037379 -0.308525 1.709161
O 1.541066 -1.077830 -0.589388
O 1.259963 1.467829 -0.129151
H 2.024967 1.275155 -0.605695
9
Time step 1911
C -0.908533 0.003405 -0.259543
F -1.004178 0.135830 -1.550870
F -1.540447 1.071880 0.305096
F -1.593162 -1.101202 0.051232
S 0.816278 -0.146054 0.331482
O 1.037830 -0.308158 1.708617
O 1.539190 -1.077161 -0.589974
O 1.260676 1.467708 -0.129930
H 2.016262 1.277521 -0.598951
9
Time step 1912
C -0.907361 0.002919 -0.259447
F -1.003224 0.136254 -1.552244
F -1.540782 1.072967 0.305515
F -1.592513 -1.102571 0.051800
S 0.815721 -0.146488 0.332404
O 1.038278 -0.307792 1.708095
O 1.537305 -1.076483 -0.590555
O 1.261365 1.467579 -0.130693
H 2.007885 1.279849 -0.592434
9
Time step 1913
C -0.906208 0.002436 -0.259346
F -1.002265 0.136679 -1.553622
F -1.541112 1.074051 0.305934
F -1.591863 -1.103940 0.052371
S 0.815174 -0.146921 0.333311
O 1.038723 -0.307425 1.707594
O 1.535412 -1.075796 -0.591131
O 1.262028 1.467445 -0.131436
H 1.999904 1.282122 -0.586189
9
Time step 1914
C -0.905076 0.001954 -0.259239
F -1.001301 0.137105 -1.555004
F -1.541438 1.075131 0.306353
F -1.591213 -1.105307 0.052943
S 0.814636 -0.147353 0.334202
O 1.039164 -0.307059 1.707116
O 1.533510 -1.075102 -0.591703
O 1.262658 1.467305 -0.132158
H 1.992392 1.284323 -0.580261
9
Time step 1915
C -0.903965 0.001474 -0.259125
F -1.000333 0.137532 -1.556390
F -1.541760 1.076206 0.306771
F -1.590561 -1.106674 0.053517
S 0.814107 -0.147783 0.335077
O 1.039602 -0.306693 1.706660
O 1.531600 -1.074399 -0.592269
O 1.263252 1.467163 -0.132855
H 1.985426 1.286432 -0.574695
9
Time step 1916
C -0.902876 0.000996 -0.259003
F -0.999362 0.137959 -1.557780
F -1.542079 1.077276 0.307189
F -1.589908 -1.108039 0.054094
S 0.813588 -0.148211 0.335937
O 1.040037 -0.306328 1.706226
O 1.529681 -1.073689 -0.592830
O 1.263805 1.467019 -0.133524
H 1.979085 1.288431 -0.569533
9
Time step 1917
C -0.901812 0.000520 -0.258874
F -0.998387 0.138389 -1.559175
F -1.542393 1.078341 0.307605
F -1.589252 -1.109402 0.054673
S 0.813079 -0.148637 0.336781
O 1.040468 -0.305965 1.705816
O 1.527753 -1.072971 -0.593387
O 1.264312 1.466874 -0.134163
H 1.973446 1.290298 -0.564817
9
Time step 1918
C -0.900774 0.000047 -0.258737
F -0.997407 0.138820 -1.560574
F -1.542703 1.079399 0.308019
F -1.588593 -1.110765 0.055254
S 0.812580 -0.149061 0.337609
O 1.040896 -0.305602 1.705429
O 1.525816 -1.072247 -0.593938
O 1.264770 1.466730 -0.134770
H 1.968579 1.292016 -0.560583
9
Time step 1919
C -0.899767 -0.000422 -0.258595
F -0.996424 0.139252 -1.561976
F -1.543006 1.080452 0.308433
F -1.587931 -1.112127 0.055838
S 0.812090 -0.149482 0.338420
O 1.041321 -0.305241 1.705067
O 1.523871 -1.071515 -0.594484
O 1.265173 1.466587 -0.135342
H 1.964551 1.293568 -0.556865
9
Time step 1920
C -0.898789 -0.000884 -0.258449
F -0.995436 0.139686 -1.563381
F -1.543303 1.081498 0.308845
F -1.587265 -1.113489 0.056424
S 0.811609 -0.149901 0.339213
O 1.041742 -0.304882 1.704731
O 1.521917 -1.070776 -0.595025
O 1.265519 1.466446 -0.135879
H 1.961414 1.294941 -0.553692
9
Time step 1921
C -0.897841 -0.001337 -0.258299
F -0.994443 0.140120 -1.564787
F -1.543593 1.082538 0.309256
F -1.586596 -1.114851 0.057011
S 0.811137 -0.150318 0.339990
O 1.042161 -0.304524 1.704421
O 1.519954 -1.070029 -0.595560
O 1.265804 1.466307 -0.136379
H 1.959212 1.296127 -0.551085
9
Time step 1922
C -0.896920 -0.001780 -0.258147
F -0.993447 0.140555 -1.566194
F -1.543878 1.083570 0.309666
F -1.585923 -1.116213 0.057601
S 0.810675 -0.150733 0.340748
O 1.042577 -0.304167 1.704140
O 1.517984 -1.069275 -0.596090
O 1.266025 1.466171 -0.136841
H 1.957978 1.297117 -0.549063
9
Time step 1923
C -0.896026 -0.002211 -0.257992
F -0.992448 0.140990 -1.567602
F -1.544156 1.084594 0.310074
F -1.585246 -1.117574 0.058193
S 0.810222 -0.151146 0.341489
O 1.042989 -0.303812 1.703886
O 1.516005 -1.068513 -0.596616
O 1.266182 1.466037 -0.137264
H 1.957734 1.297908 -0.547638
9
Time step 1924
C -0.895158 -0.002633 -0.257834
F -0.991446 0.141426 -1.569012
F -1.544430 1.085610 0.310481
F -1.584567 -1.118933 0.058787
S 0.809779 -0.151557 0.342212
O 1.043399 -0.303459 1.703660
O 1.514019 -1.067745 -0.597137
O 1.266274 1.465907 -0.137647
H 1.958491 1.298498 -0.546815
9
Time step 1925
C -0.894316 -0.003046 -0.257671
F -0.990442 0.141862 -1.570423
F -1.544698 1.086618 0.310885
F -1.583885 -1.120291 0.059382
S 0.809345 -0.151966 0.342917
O 1.043805 -0.303107 1.703463
O 1.512026 -1.066971 -0.597653
O 1.266300 1.465778 -0.137990
H 1.960250 1.298888 -0.546595
9
Time step 1926
C -0.893503 -0.003453 -0.257504
F -0.989434 0.142299 -1.571834
F -1.544960 1.087619 0.311288
F -1.583200 -1.121646 0.059979
S 0.808921 -0.152372 0.343605
O 1.044208 -0.302756 1.703293
O 1.510027 -1.066190 -0.598166
O 1.266261 1.465652 -0.138293
H 1.963004 1.299082 -0.546969
9
Time step 1927
C -0.892722 -0.003854 -0.257333
F -0.988422 0.142737 -1.573246
F -1.545217 1.088613 0.311689
F -1.582512 -1.122998 0.060577
S 0.808507 -0.152774 0.344274
O 1.044609 -0.302406 1.703150
O 1.508022 -1.065404 -0.598675
O 1.266158 1.465527 -0.138558
H 1.966731 1.299084 -0.547924
9
Time step 1928
C -0.891973 -0.004250 -0.257161
F -0.987406 0.143175 -1.574656
F -1.545467 1.089599 0.312088
F -1.581821 -1.124347 0.061176
S 0.808102 -0.153172 0.344926
O 1.045006 -0.302057 1.703035
O 1.506011 -1.064613 -0.599181
O 1.265994 1.465402 -0.138784
H 1.971399 1.298904 -0.549439
9
Time step 1929
C -0.891257 -0.004639 -0.256990
F -0.986385 0.143613 -1.576064
F -1.545710 1.090577 0.312487
F -1.581127 -1.125694 0.061776
S 0.807706 -0.153566 0.345559
O 1.045401 -0.301709 1.702947
O 1.503995 -1.063817 -0.599682
O 1.265770 1.465278 -0.138975
H 1.976965 1.298552 -0.551486
9
Time step 1930
C -0.890573 -0.005021 -0.256820
F -0.985359 0.144050 -1.577468
F -1.545946 1.091548 0.312884
F -1.580429 -1.127038 0.062377
S 0.807318 -0.153956 0.346174
O 1.045794 -0.301363 1.702888
O 1.501973 -1.063016 -0.600179
O 1.265490 1.465152 -0.139132
H 1.983374 1.298042 -0.554031
9
Time step 1931
C -0.889918 -0.005394 -0.256654
F -0.984330 0.144488 -1.578869
F -1.546177 1.092511 0.313279
F -1.579727 -1.128379 0.062979
S 0.806939 -0.154341 0.346770
O 1.046185 -0.301020 1.702858
O 1.499946 -1.062210 -0.600672
O 1.265159 1.465026 -0.139257
H 1.990564 1.297386 -0.557038
9
Time step 1932
C -0.889292 -0.005760 -0.256490
F -0.983297 0.144925 -1.580265
F -1.546402 1.093467 0.313672
F -1.579021 -1.129718 0.063583
S 0.806568 -0.154723 0.347347
O 1.046573 -0.300680 1.702857
O 1.497913 -1.061400 -0.601160
O 1.264780 1.464897 -0.139355
H 1.998466 1.296602 -0.560466
9
Time step 1933
C -0.888696 -0.006119 -0.256327
F -0.982262 0.145364 -1.581658
F -1.546621 1.094414 0.314063
F -1.578311 -1.131054 0.064189
S 0.806205 -0.155099 0.347905
O 1.046960 -0.300343 1.702887
O 1.495874 -1.060585 -0.601644
O 1.264359 1.464765 -0.139426
H 2.007008 1.295702 -0.564274
9
Time step 1934
C -0.888129 -0.006473 -0.256166
F -0.981224 0.145803 -1.583048
F -1.546833 1.095353 0.314450
F -1.577596 -1.132387 0.064796
S 0.805850 -0.155471 0.348442
O 1.047344 -0.300010 1.702948
O 1.493830 -1.059765 -0.602122
O 1.263899 1.464629 -0.139473
H 2.016118 1.294704 -0.568424
9
Time step 1935
C -0.887593 -0.006820 -0.256003
F -0.980181 0.146243 -1.584435
F -1.547040 1.096284 0.314835
F -1.576877 -1.133715 0.065404
S 0.805504 -0.155838 0.348959
O 1.047726 -0.299679 1.703041
O 1.491780 -1.058942 -0.602596
O 1.263405 1.464488 -0.139498
H 2.025723 1.293621 -0.572874
9
Time step 1936
C -0.887087 -0.007162 -0.255840
F -0.979135 0.146682 -1.585818
F -1.547240 1.097205 0.315217
F -1.576155 -1.135039 0.066013
S 0.805166 -0.156200 0.349456
O 1.048106 -0.299351 1.703164
O 1.489724 -1.058115 -0.603067
O 1.262881 1.464342 -0.139504
H 2.035752 1.292468 -0.577588
9
Time step 1937
C -0.886613 -0.007496 -0.255677
F -0.978085 0.147120 -1.587195
F -1.547433 1.098117 0.315597
F -1.575428 -1.136358 0.066621
S 0.804837 -0.156557 0.349932
O 1.048484 -0.299025 1.703317
O 1.487662 -1.057285 -0.603533
O 1.262332 1.464188 -0.139492
H 2.046137 1.291259 -0.582527
9
Time step 1938
C -0.886167 -0.007821 -0.255514
F -0.977030 0.147556 -1.588565
F -1.547619 1.099017 0.315973
F -1.574699 -1.137671 0.067228
S 0.804516 -0.156909 0.350388
O 1.048860 -0.298700 1.703501
O 1.485594 -1.056451 -0.603996
O 1.261760 1.464027 -0.139464
H 2.056812 1.290008 -0.587653
9
Time step 1939
C -0.885751 -0.008136 -0.255353
F -0.975972 0.147990 -1.589928
F -1.547798 1.099907 0.316347
F -1.573967 -1.138978 0.067835
S 0.804205 -0.157255 0.350824
O 1.049234 -0.298377 1.703714
O 1.483520 -1.055615 -0.604455
O 1.261170 1.463858 -0.139423
H 2.067713 1.288728 -0.592929
9
Time step 1940
C -0.885365 -0.008441 -0.255195
F -0.974911 0.148423 -1.591284
F -1.547971 1.100786 0.316717
F -1.573232 -1.140280 0.068441
S 0.803904 -0.157596 0.351241
O 1.049606 -0.298057 1.703957
O 1.481439 -1.054777 -0.604911
O 1.260566 1.463679 -0.139371
H 2.078780 1.287431 -0.598316
9
Time step 1941
C -0.885011 -0.008737 -0.255039
F -0.973846 0.148854 -1.592634
F -1.548137 1.101655 0.317083
F -1.572493 -1.141576 0.069047
S 0.803612 -0.157930 0.351638
O 1.049976 -0.297740 1.704231
O 1.479352 -1.053937 -0.605364
O 1.259950 1.463491 -0.139311
H 2.089954 1.286128 -0.603779
9
Time step 1942
C -0.884691 -0.009025 -0.254885
F -0.972777 0.149285 -1.593978
F -1.548296 1.102512 0.317446
F -1.571750 -1.142867 0.069653
S 0.803331 -0.158258 0.352016
O 1.050344 -0.297426 1.704535
O 1.477259 -1.053096 -0.605813
O 1.259325 1.463292 -0.139244
H 2.101185 1.284829 -0.609282
9
Time step 1943
C -0.884406 -0.009304 -0.254731
F -0.971705 0.149715 -1.595318
F -1.548447 1.103359 0.317805
F -1.571002 -1.144153 0.070259
S 0.803061 -0.158579 0.352373
O 1.050710 -0.297115 1.704871
O 1.475160 -1.052253 -0.606258
O 1.258696 1.463082 -0.139172
H 2.112422 1.283543 -0.614795
9
Time step 1944
C -0.884157 -0.009574 -0.254577
F -0.970629 0.150144 -1.596652
F -1.548591 1.104194 0.318161
F -1.570250 -1.145432 0.070865
S 0.802800 -0.158894 0.352709
O 1.051074 -0.296808 1.705240
O 1.473054 -1.051408 -0.606700
O 1.258065 1.462859 -0.139097
H 2.123621 1.282276 -0.620292
9
Time step 1945
C -0.883941 -0.009832 -0.254423
F -0.969550 0.150572 -1.597980
F -1.548728 1.105018 0.318512
F -1.569494 -1.146706 0.071470
S 0.802550 -0.159203 0.353024
O 1.051437 -0.296502 1.705642
O 1.470942 -1.050562 -0.607140
O 1.257434 1.462624 -0.139021
H 2.134743 1.281033 -0.625750
9
Time step 1946
C -0.883758 -0.010078 -0.254269
F -0.968468 0.150997 -1.599301
F -1.548858 1.105828 0.318860
F -1.568734 -1.147974 0.072073
S 0.802309 -0.159507 0.353318
O 1.051798 -0.296197 1.706077
O 1.468826 -1.049714 -0.607577
O 1.256805 1.462376 -0.138943
H 2.145749 1.279821 -0.631150
9
Time step 1947
C -0.883606 -0.010310 -0.254117
F -0.967384 0.151421 -1.600613
F -1.548980 1.106627 0.319204
F -1.567970 -1.149234 0.072675
S 0.802078 -0.159806 0.353591
O 1.052157 -0.295892 1.706546
O 1.466705 -1.048864 -0.608011
O 1.256182 1.462114 -0.138865
H 2.156603 1.278643 -0.636476
9
Time step 1948
C -0.883487 -0.010531 -0.253968
F -0.966299 0.151843 -1.601916
F -1.549096 1.107413 0.319543
F -1.567201 -1.150488 0.073276
S 0.801857 -0.160100 0.353843
O 1.052515 -0.295588 1.707048
O 1.464581 -1.048013 -0.608444
O 1.255565 1.461839 -0.138788
H 2.167272 1.277504 -0.641710
9
Time step 1949
C -0.883403 -0.010741 -0.253824
F -0.965210 0.152265 -1.603210
F -1.549204 1.108188 0.319878
F -1.566429 -1.151736 0.073876
S 0.801645 -0.160389 0.354074
O 1.052870 -0.295285 1.707581
O 1.462453 -1.047161 -0.608874
O 1.254957 1.461549 -0.138713
H 2.177723 1.276408 -0.646838
9
Time step 1950
C -0.883356 -0.010945 -0.253685
F -0.964118 0.152685 -1.604493
F -1.549303 1.108951 0.320208
F -1.565651 -1.152976 0.074476
S 0.801441 -0.160672 0.354286
O 1.053224 -0.294984 1.708145
O 1.460323 -1.046309 -0.609302
O 1.254360 1.461247 -0.138641
H 2.187925 1.275359 -0.651843
9
Time step 1951
C -0.883348 -0.011144 -0.253550
F -0.963022 0.153106 -1.605768
F -1.549394 1.109704 0.320535
F -1.564869 -1.154208 0.075076
S 0.801247 -0.160948 0.354478
O 1.053575 -0.294686 1.708740
O 1.458191 -1.045458 -0.609729
O 1.253775 1.460932 -0.138573
H 2.197850 1.274361 -0.656709
9
Time step 1952
C -0.883378 -0.011338 -0.253420
F -0.961922 0.153525 -1.607033
F -1.549477 1.110446 0.320857
F -1.564082 -1.155433 0.075675
S 0.801061 -0.161216 0.354650
O 1.053925 -0.294391 1.709364
O 1.456058 -1.044608 -0.610154
O 1.253204 1.460603 -0.138510
H 2.207472 1.273418 -0.661423
9
Time step 1953
C -0.883443 -0.011527 -0.253293
F -0.960818 0.153943 -1.608289
F -1.549552 1.111177 0.321176
F -1.563291 -1.156650 0.076274
S 0.800883 -0.161476 0.354804
O 1.054272 -0.294101 1.710018
O 1.453923 -1.043759 -0.610578
O 1.252649 1.460262 -0.138454
H 2.216769 1.272534 -0.665971
9
Time step 1954
C -0.883539 -0.011709 -0.253169
F -0.959712 0.154360 -1.609535
F -1.549620 1.111896 0.321489
F -1.562497 -1.157859 0.076872
S 0.800713 -0.161729 0.354940
O 1.054617 -0.293813 1.710700
O 1.451786 -1.042911 -0.611002
O 1.252110 1.459907 -0.138405
H 2.225721 1.271711 -0.670344
9
Time step 1955
C -0.883663 -0.011881 -0.253047
F -0.958603 0.154774 -1.610771
F -1.549681 1.112605 0.321799
F -1.561699 -1.159061 0.077468
S 0.800551 -0.161974 0.355059
O 1.054960 -0.293529 1.711412
O 1.449648 -1.042065 -0.611426
O 1.251590 1.459538 -0.138364
H 2.234314 1.270952 -0.674531
9
Time step 1956
C -0.883815 -0.012044 -0.252930
F -0.957493 0.155187 -1.611996
F -1.549736 1.113301 0.322103
F -1.560896 -1.160256 0.078063
S 0.800396 -0.162213 0.355161
O 1.055302 -0.293248 1.712151
O 1.447508 -1.041220 -0.611850
O 1.251089 1.459156 -0.138332
H 2.242536 1.270258 -0.678527
9
Time step 1957
C -0.883996 -0.012196 -0.252816
F -0.956381 0.155598 -1.613211
F -1.549784 1.113987 0.322402
F -1.560090 -1.161444 0.078656
S 0.800248 -0.162445 0.355246
O 1.055641 -0.292968 1.712919
O 1.445365 -1.040377 -0.612274
O 1.250606 1.458759 -0.138309
H 2.250377 1.269631 -0.682323
9
Time step 1958
C -0.884210 -0.012337 -0.252709
F -0.955268 0.156009 -1.614414
F -1.549823 1.114660 0.322696
F -1.559278 -1.162626 0.079247
S 0.800108 -0.162670 0.355314
O 1.055979 -0.292691 1.713714
O 1.443221 -1.039534 -0.612698
O 1.250143 1.458347 -0.138295
H 2.257832 1.269071 -0.685914
9
Time step 1959
C -0.884459 -0.012469 -0.252607
F -0.954152 0.156418 -1.615606
F -1.549853 1.115321 0.322986
F -1.558462 -1.163801 0.079838
S 0.799976 -0.162887 0.355366
O 1.056315 -0.292415 1.714537
O 1.441076 -1.038695 -0.613121
O 1.249699 1.457920 -0.138289
H 2.264896 1.268578 -0.689292
9
Time step 1960
C -0.884742 -0.012590 -0.252511
F -0.953033 0.156826 -1.616786
F -1.549875 1.115969 0.323270
F -1.557641 -1.164969 0.080427
S 0.799851 -0.163096 0.355400
O 1.056650 -0.292142 1.715386
O 1.438929 -1.037858 -0.613544
O 1.249274 1.457478 -0.138293
H 2.271564 1.268151 -0.692453
9
Time step 1961
C -0.885059 -0.012701 -0.252420
F -0.951911 0.157233 -1.617954
F -1.549888 1.116604 0.323550
F -1.556817 -1.166128 0.081014
S 0.799736 -0.163296 0.355416
O 1.056983 -0.291872 1.716262
O 1.436781 -1.037025 -0.613965
O 1.248867 1.457020 -0.138305
H 2.277833 1.267790 -0.695391
9
Time step 1962
C -0.885407 -0.012799 -0.252333
F -0.950787 0.157637 -1.619110
F -1.549893 1.117223 0.323824
F -1.555989 -1.167278 0.081599
S 0.799628 -0.163486 0.355415
O 1.057314 -0.291605 1.717165
O 1.434633 -1.036196 -0.614387
O 1.248479 1.456547 -0.138327
H 2.283697 1.267494 -0.698104
9
Time step 1963
C -0.885783 -0.012885 -0.252249
F -0.949662 0.158038 -1.620253
F -1.549891 1.117828 0.324094
F -1.555159 -1.168418 0.082182
S 0.799529 -0.163666 0.355397
O 1.057642 -0.291340 1.718094
O 1.432484 -1.035373 -0.614810
O 1.248110 1.456057 -0.138357
H 2.289152 1.267260 -0.700592
9
Time step 1964
C -0.886187 -0.012957 -0.252169
F -0.948535 0.158436 -1.621383
F -1.549882 1.118418 0.324358
F -1.554326 -1.169550 0.082762
S 0.799439 -0.163835 0.355362
O 1.057968 -0.291079 1.719049
O 1.430336 -1.034554 -0.615234
O 1.247760 1.455551 -0.138396
H 2.294194 1.267087 -0.702854
9
Time step 1965
C -0.886620 -0.013016 -0.252092
F -0.947406 0.158833 -1.622500
F -1.549866 1.118993 0.324616
F -1.553490 -1.170672 0.083340
S 0.799357 -0.163995 0.355310
O 1.058292 -0.290820 1.720029
O 1.428188 -1.033741 -0.615659
O 1.247431 1.455029 -0.138445
H 2.298818 1.266971 -0.704892
9
Time step 1966
C -0.887084 -0.013062 -0.252020
F -0.946276 0.159227 -1.623605
F -1.549844 1.119554 0.324870
F -1.552649 -1.171786 0.083917
S 0.799282 -0.164145 0.355244
O 1.058612 -0.290564 1.721035
O 1.426040 -1.032933 -0.616086
O 1.247121 1.454490 -0.138503
H 2.303022 1.266913 -0.706707
9
Time step 1967
C -0.887581 -0.013096 -0.251954
F -0.945142 0.159619 -1.624697
F -1.549814 1.120101 0.325119
F -1.551803 -1.172891 0.084491
S 0.799216 -0.164284 0.355161
O 1.058930 -0.290311 1.722064
O 1.423892 -1.032130 -0.616514
O 1.246832 1.453937 -0.138570
H 2.306803 1.266908 -0.708300
9
Time step 1968
C -0.888112 -0.013121 -0.251894
F -0.944006 0.160009 -1.625775
F -1.549777 1.120634 0.325363
F -1.550953 -1.173987 0.085064
S 0.799157 -0.164414 0.355064
O 1.059245 -0.290060 1.723117
O 1.421745 -1.031333 -0.616945
O 1.246564 1.453369 -0.138645
H 2.310159 1.266957 -0.709672
9
Time step 1969
C -0.888677 -0.013136 -0.251841
F -0.942867 0.160397 -1.626840
F -1.549733 1.121154 0.325602
F -1.550097 -1.175072 0.085635
S 0.799107 -0.164535 0.354952
O 1.059556 -0.289812 1.724193
O 1.419599 -1.030542 -0.617377
O 1.246317 1.452787 -0.138730
H 2.313089 1.267059 -0.710822
9
Time step 1970
C -0.889274 -0.013141 -0.251795
F -0.941726 0.160782 -1.627891
F -1.549682 1.121660 0.325836
F -1.549237 -1.176147 0.086203
S 0.799064 -0.164647 0.354826
O 1.059865 -0.289565 1.725291
O 1.417454 -1.029757 -0.617812
O 1.246092 1.452191 -0.138823
H 2.315594 1.267215 -0.711751
9
Time step 1971
C -0.889903 -0.013137 -0.251755
F -0.940584 0.161164 -1.628929
F -1.549625 1.122152 0.326066
F -1.548374 -1.177211 0.086770
S 0.799030 -0.164750 0.354686
O 1.060172 -0.289321 1.726412
O 1.415311 -1.028978 -0.618249
O 1.245888 1.451582 -0.138924
H 2.317670 1.267426 -0.712459
9
Time step 1972
C -0.890561 -0.013125 -0.251721
F -0.939441 0.161543 -1.629952
F -1.549561 1.122632 0.326290
F -1.547506 -1.178265 0.087333
S 0.799003 -0.164844 0.354532
O 1.060475 -0.289078 1.727554
O 1.413171 -1.028205 -0.618690
O 1.245706 1.450961 -0.139034
H 2.319316 1.267692 -0.712944
9
Time step 1973
C -0.891250 -0.013105 -0.251691
F -0.938297 0.161919 -1.630963
F -1.549492 1.123100 0.326509
F -1.546635 -1.179309 0.087894
S 0.798983 -0.164928 0.354367
O 1.060776 -0.288839 1.728717
O 1.411032 -1.027440 -0.619135
O 1.245547 1.450327 -0.139152
H 2.320530 1.268016 -0.713207
9
Time step 1974
C -0.891969 -0.013078 -0.251665
F -0.937151 0.162292 -1.631960
F -1.549414 1.123555 0.326722
F -1.545760 -1.180343 0.088452
S 0.798970 -0.165002 0.354189
O 1.061074 -0.288601 1.729899
O 1.408896 -1.026683 -0.619584
O 1.245410 1.449682 -0.139279
H 2.321308 1.268398 -0.713246
9
Time step 1975
C -0.892718 -0.013044 -0.251642
F -0.936004 0.162663 -1.632945
F -1.549329 1.123998 0.326929
F -1.544881 -1.181369 0.089007
S 0.798963 -0.165066 0.354001
O 1.061368 -0.288367 1.731099
O 1.406763 -1.025935 -0.620038
O 1.245295 1.449023 -0.139415
H 2.321649 1.268839 -0.713061
9
Time step 1976
C -0.893496 -0.013002 -0.251622
F -0.934856 0.163032 -1.633917
F -1.549236 1.124427 0.327131
F -1.543998 -1.182384 0.089560
S 0.798963 -0.165118 0.353804
O 1.061659 -0.288136 1.732317
O 1.404631 -1.025196 -0.620497
O 1.245204 1.448353 -0.139561
H 2.321549 1.269340 -0.712649
9
Time step 1977
C -0.894301 -0.012951 -0.251606
F -0.933707 0.163398 -1.634876
F -1.549136 1.124841 0.327328
F -1.543112 -1.183390 0.090109
S 0.798968 -0.165159 0.353597
O 1.061947 -0.287907 1.733551
O 1.402502 -1.024466 -0.620961
O 1.245135 1.447671 -0.139717
H 2.321006 1.269901 -0.712008
9
Time step 1978
C -0.895132 -0.012888 -0.251593
F -0.932556 0.163760 -1.635821
F -1.549029 1.125240 0.327519
F -1.542223 -1.184384 0.090655
S 0.798980 -0.165190 0.353381
O 1.062230 -0.287680 1.734801
O 1.400376 -1.023747 -0.621431
O 1.245090 1.446977 -0.139884
H 2.320021 1.270522 -0.711138
9
Time step 1979
C -0.895988 -0.012812 -0.251584
F -0.931406 0.164120 -1.636752
F -1.548917 1.125624 0.327705
F -1.541330 -1.185369 0.091197
S 0.798999 -0.165210 0.353158
O 1.062510 -0.287455 1.736065
O 1.398252 -1.023037 -0.621907
O 1.245069 1.446271 -0.140060
H 2.318592 1.271205 -0.710035
9
Time step 1980
C -0.896872 -0.012722 -0.251581
F -0.930256 0.164476 -1.637669
F -1.548798 1.125992 0.327885
F -1.540433 -1.186343 0.091736
S 0.799024 -0.165222 0.352927
O 1.062786 -0.287232 1.737344
O 1.396132 -1.022339 -0.622389
O 1.245071 1.445553 -0.140247
H 2.316720 1.271948 -0.708699
9
Time step 1981
C -0.897785 -0.012618 -0.251584
F -0.929106 0.164829 -1.638569
F -1.548673 1.126344 0.328059
F -1.539532 -1.187307 0.092272
S 0.799056 -0.165223 0.352689
O 1.063058 -0.287008 1.738636
O 1.394016 -1.021651 -0.622877
O 1.245097 1.444823 -0.140443
H 2.314406 1.272752 -0.707130
9
Time step 1982
C -0.898729 -0.012501 -0.251593
F -0.927955 0.165180 -1.639454
F -1.548541 1.126682 0.328226
F -1.538626 -1.188261 0.092804
S 0.799094 -0.165215 0.352442
O 1.063327 -0.286785 1.739942
O 1.391904 -1.020974 -0.623372
O 1.245146 1.444080 -0.140649
H 2.311652 1.273617 -0.705329
9
Time step 1983
C -0.899705 -0.012373 -0.251608
F -0.926803 0.165529 -1.640322
F -1.548400 1.127006 0.328386
F -1.537717 -1.189206 0.093332
S 0.799138 -0.165197 0.352188
O 1.063592 -0.286563 1.741261
O 1.389798 -1.020309 -0.623872
O 1.245218 1.443325 -0.140863
H 2.308462 1.274539 -0.703296
9
Time step 1984
C -0.900712 -0.012235 -0.251628
F -0.925651 0.165877 -1.641174
F -1.548252 1.127314 0.328539
F -1.536804 -1.190141 0.093858
S 0.799188 -0.165166 0.351926
O 1.063855 -0.286343 1.742593
O 1.387696 -1.019655 -0.624379
O 1.245311 1.442557 -0.141086
H 2.304837 1.275517 -0.701036
9
Time step 1985
C -0.901745 -0.012086 -0.251652
F -0.924498 0.166222 -1.642009
F -1.548095 1.127608 0.328684
F -1.535888 -1.191066 0.094381
S 0.799242 -0.165124 0.351656
O 1.064115 -0.286124 1.743937
O 1.385601 -1.019014 -0.624891
O 1.245426 1.441775 -0.141318
H 2.300782 1.276547 -0.698550
9
Time step 1986
C -0.902802 -0.011926 -0.251682
F -0.923346 0.166566 -1.642829
F -1.547931 1.127885 0.328823
F -1.534970 -1.191981 0.094900
S 0.799301 -0.165069 0.351378
O 1.064372 -0.285909 1.745294
O 1.383512 -1.018384 -0.625409
O 1.245560 1.440980 -0.141558
H 2.296300 1.277625 -0.695842
9
Time step 1987
C -0.903879 -0.011753 -0.251718
F -0.922194 0.166906 -1.643631
F -1.547760 1.128148 0.328955
F -1.534050 -1.192885 0.095417
S 0.799365 -0.165000 0.351093
O 1.064626 -0.285697 1.746663
O 1.381429 -1.017767 -0.625934
O 1.245715 1.440172 -0.141807
H 2.291395 1.278746 -0.692915
9
Time step 1988
C -0.904974 -0.011567 -0.251760
F -0.921042 0.167244 -1.644417
F -1.547583 1.128395 0.329081
F -1.533128 -1.193779 0.095931
S 0.799433 -0.164919 0.350801
O 1.064876 -0.285487 1.748042
O 1.379353 -1.017163 -0.626465
O 1.245889 1.439350 -0.142064
H 2.286071 1.279908 -0.689774
9
Time step 1989
C -0.906090 -0.011369 -0.251811
F -0.919892 0.167578 -1.645186
F -1.547399 1.128628 0.329200
F -1.532203 -1.194662 0.096441
S 0.799505 -0.164826 0.350503
O 1.065122 -0.285281 1.749431
O 1.377284 -1.016570 -0.627003
O 1.246083 1.438516 -0.142329
H 2.280332 1.281107 -0.686422
9
Time step 1990
C -0.907227 -0.011160 -0.251870
F -0.918741 0.167909 -1.645937
F -1.547209 1.128847 0.329314
F -1.531274 -1.195534 0.096949
S 0.799582 -0.164721 0.350200
O 1.065363 -0.285076 1.750830
O 1.375221 -1.015991 -0.627549
O 1.246296 1.437670 -0.142601
H 2.274183 1.282339 -0.682863
9
Time step 1991
C -0.908388 -0.010944 -0.251935
F -0.917590 0.168237 -1.646670
F -1.547012 1.129053 0.329423
F -1.530342 -1.196395 0.097452
S 0.799664 -0.164603 0.349892
O 1.065599 -0.284873 1.752236
O 1.373165 -1.015423 -0.628103
O 1.246528 1.436811 -0.142882
H 2.267630 1.283603 -0.679101
9
Time step 1992
C -0.909572 -0.010722 -0.252007
F -0.916439 0.168562 -1.647386
F -1.546809 1.129245 0.329525
F -1.529407 -1.197244 0.097952
S 0.799750 -0.164474 0.349580
O 1.065831 -0.284671 1.753649
O 1.371116 -1.014867 -0.628665
O 1.246779 1.435941 -0.143170
H 2.260682 1.284899 -0.675140
9
Time step 1993
C -0.910779 -0.010495 -0.252084
F -0.915287 0.168885 -1.648084
F -1.546599 1.129423 0.329622
F -1.528469 -1.198081 0.098447
S 0.799842 -0.164334 0.349265
O 1.066057 -0.284470 1.755068
O 1.369073 -1.014323 -0.629236
O 1.247050 1.435060 -0.143466
H 2.253347 1.286227 -0.670985
9
Time step 1994
C -0.912007 -0.010264 -0.252163
F -0.914136 0.169205 -1.648767
F -1.546384 1.129587 0.329712
F -1.527530 -1.198904 0.098939
S 0.799938 -0.164182 0.348948
O 1.066278 -0.284270 1.756492
O 1.367038 -1.013791 -0.629817
O 1.247340 1.434168 -0.143769
H 2.245637 1.287587 -0.666641
9
Time step 1995
C -0.913255 -0.010026 -0.252243
F -0.912986 0.169523 -1.649435
F -1.546165 1.129737 0.329795
F -1.526588 -1.199714 0.099426
S 0.800039 -0.164019 0.348628
O 1.066494 -0.284071 1.757921
O 1.365011 -1.013272 -0.630408
O 1.247648 1.433265 -0.144079
H 2.237564 1.288981 -0.662114
9
Time step 1996
C -0.914520 -0.009781 -0.252325
F -0.911837 0.169838 -1.650088
F -1.545941 1.129871 0.329872
F -1.525644 -1.200512 0.099910
S 0.800145 -0.163845 0.348308
O 1.066704 -0.283873 1.759353
O 1.362991 -1.012765 -0.631008
O 1.247975 1.432352 -0.144396
H 2.229144 1.290409 -0.657411
9
Time step 1997
C -0.915804 -0.009525 -0.252407
F -0.910689 0.170149 -1.650728
F -1.545713 1.129991 0.329943
F -1.524698 -1.201297 0.100391
S 0.800255 -0.163659 0.347987
O 1.066910 -0.283676 1.760788
O 1.360978 -1.012273 -0.631620
O 1.248318 1.431429 -0.144718
H 2.220392 1.291872 -0.652538
9
Time step 1998
C -0.917106 -0.009259 -0.252490
F -0.909542 0.170457 -1.651353
F -1.545480 1.130096 0.330007
F -1.523749 -1.202071 0.100867
S 0.800369 -0.163462 0.347666
O 1.067110 -0.283480 1.762224
O 1.358974 -1.011796 -0.632241
O 1.248678 1.430497 -0.145045
H 2.211324 1.293370 -0.647505
9
Time step 1999
C -0.918429 -0.008982 -0.252576
F -0.908396 0.170761 -1.651963
F -1.545241 1.130187 0.330065
F -1.522798 -1.202834 0.101340
S 0.800487 -0.163254 0.347345
O 1.067304 -0.283285 1.763661
O 1.356978 -1.011335 -0.632874
O 1.249051 1.429556 -0.145377
H 2.201959 1.294900 -0.642319
9
Time step 2000
C -0.919771 -0.008692 -0.252666
F -0.907251 0.171061 -1.652557
F -1.544997 1.130263 0.330118
F -1.521845 -1.203585 0.101808
S 0.800609 -0.163033 0.347025
O 1.067493 -0.283091 1.765099
O 1.354990 -1.010891 -0.633517
O 1.249438 1.428607 -0.145712
H 2.192316 1.296462 -0.636991
9
Time step 2001
C -0.921131 -0.008391 -0.252761
F -0.906108 0.171358 -1.653133
F -1.544746 1.130324 0.330164
F -1.520890 -1.204325 0.102273
S 0.800735 -0.162801 0.346706
O 1.067676 -0.282897 1.766535
O 1.353012 -1.010464 -0.634171
O 1.249836 1.427650 -0.146050
H 2.182416 1.298050 -0.631533
9
Time step 2002
C -0.922508 -0.008077 -0.252863
F -0.904966 0.171651 -1.653693
F -1.544489 1.130370 0.330205
F -1.519933 -1.205054 0.102733
S 0.800863 -0.162556 0.346388
O 1.067853 -0.282704 1.767970
O 1.351044 -1.010054 -0.634837
O 1.250244 1.426685 -0.146391
H 2.172281 1.299662 -0.625955
9
Time step 2003
C -0.923900 -0.007750 -0.252971
F -0.903826 0.171941 -1.654234
F -1.544228 1.130400 0.330239
F -1.518975 -1.205771 0.103190
S 0.800995 -0.162300 0.346074
O 1.068025 -0.282511 1.769404
O 1.349085 -1.009662 -0.635515
O 1.250661 1.425712 -0.146735
H 2.161937 1.301294 -0.620273
9
Time step 2004
C -0.925307 -0.007409 -0.253087
F -0.902688 0.172227 -1.654758
F -1.543963 1.130414 0.330267
F -1.518015 -1.206477 0.103643
S 0.801129 -0.162033 0.345761
O 1.068191 -0.282319 1.770836
O 1.347138 -1.009288 -0.636205
O 1.251085 1.424732 -0.147079
H 2.151413 1.302943 -0.614503
9
Time step 2005
C -0.926729 -0.007054 -0.253208
F -0.901552 0.172511 -1.655265
F -1.543693 1.130413 0.330289
F -1.517053 -1.207171 0.104092
S 0.801266 -0.161753 0.345452
O 1.068352 -0.282127 1.772267
O 1.345201 -1.008932 -0.636908
O 1.251516 1.423744 -0.147423
H 2.140740 1.304604 -0.608661
9
Time step 2006
C -0.928167 -0.006686 -0.253333
F -0.900419 0.172791 -1.655754
F -1.543420 1.130397 0.330305
F -1.516088 -1.207854 0.104538
S 0.801405 -0.161461 0.345145
O 1.068508 -0.281936 1.773696
O 1.343275 -1.008595 -0.637624
O 1.251949 1.422748 -0.147766
H 2.129955 1.306276 -0.602767
9
Time step 2007
C -0.929619 -0.006306 -0.253461
F -0.899286 0.173069 -1.656227
F -1.543142 1.130366 0.330314
F -1.515121 -1.208526 0.104978
S 0.801545 -0.161157 0.344840
O 1.068659 -0.281745 1.775123
O 1.341360 -1.008277 -0.638352
O 1.252383 1.421744 -0.148107
H 2.119099 1.307953 -0.596842
9
Time step 2008
C -0.931088 -0.005917 -0.253590
F -0.898156 0.173344 -1.656683
F -1.542860 1.130320 0.330316
F -1.514152 -1.209185 0.105414
S 0.801688 -0.160838 0.344538
O 1.068805 -0.281554 1.776547
O 1.339456 -1.007979 -0.639092
O 1.252815 1.420733 -0.148442
H 2.108220 1.309632 -0.590911
9
Time step 2009
C -0.932570 -0.005520 -0.253721
F -0.897028 0.173616 -1.657121
F -1.542572 1.130259 0.330311
F -1.513182 -1.209833 0.105844
S 0.801832 -0.160506 0.344238
O 1.068947 -0.281365 1.777967
O 1.337562 -1.007699 -0.639842
O 1.253240 1.419714 -0.148771
H 2.097369 1.311305 -0.585000
9
Time step 2010
C -0.934064 -0.005115 -0.253853
F -0.895901 0.173886 -1.657542
F -1.542280 1.130182 0.330299
F -1.512210 -1.210467 0.106269
S 0.801978 -0.160160 0.343941
O 1.069084 -0.281177 1.779383
O 1.335677 -1.007438 -0.640604
O 1.253655 1.418688 -0.149092
H 2.086603 1.312968 -0.579136
9
Time step 2011
C -0.935570 -0.004703 -0.253989
F -0.894778 0.174152 -1.657945
F -1.541982 1.130091 0.330280
F -1.511238 -1.211089 0.106689
S 0.802126 -0.159799 0.343647
O 1.069218 -0.280990 1.780794
O 1.333803 -1.007195 -0.641376
O 1.254058 1.417655 -0.149403
H 2.075983 1.314611 -0.573353
9
Time step 2012
C -0.937086 -0.004282 -0.254130
F -0.893658 0.174416 -1.658330
F -1.541681 1.129986 0.330254
F -1.510263 -1.211698 0.107104
S 0.802275 -0.159425 0.343358
O 1.069347 -0.280805 1.782197
O 1.331938 -1.006970 -0.642158
O 1.254443 1.416617 -0.149702
H 2.065576 1.316226 -0.567685
9
Time step 2013
C -0.938611 -0.003853 -0.254276
F -0.892541 0.174676 -1.658697
F -1.541375 1.129866 0.330220
F -1.509287 -1.212296 0.107514
S 0.802424 -0.159038 0.343074
O 1.069472 -0.280623 1.783593
O 1.330082 -1.006761 -0.642952
O 1.254807 1.415573 -0.149988
H 2.055450 1.317806 -0.562168
9
Time step 2014
C -0.940146 -0.003416 -0.254426
F -0.891427 0.174932 -1.659046
F -1.541066 1.129733 0.330179
F -1.508308 -1.212881 0.107919
S 0.802575 -0.158639 0.342797
O 1.069592 -0.280442 1.784982
O 1.328237 -1.006570 -0.643757
O 1.255146 1.414525 -0.150257
H 2.045679 1.319339 -0.556841
9
Time step 2015
C -0.941689 -0.002971 -0.254581
F -0.890317 0.175185 -1.659378
F -1.540754 1.129586 0.330132
F -1.507327 -1.213454 0.108320
S 0.802726 -0.158227 0.342526
O 1.069708 -0.280262 1.786362
O 1.326401 -1.006395 -0.644575
O 1.255456 1.413475 -0.150507
H 2.036341 1.320817 -0.551744
9
Time step 2016
C -0.943241 -0.002519 -0.254737
F -0.889210 0.175435 -1.659692
F -1.540439 1.129427 0.330077
F -1.506346 -1.214014 0.108715
S 0.802878 -0.157803 0.342261
O 1.069818 -0.280083 1.787733
O 1.324577 -1.006237 -0.645406
O 1.255731 1.412422 -0.150737
H 2.027515 1.322230 -0.546920
9
Time step 2017
C -0.944799 -0.002063 -0.254893
F -0.888107 0.175682 -1.659990
F -1.540120 1.129254 0.330015
F -1.505363 -1.214563 0.109105
S 0.803030 -0.157369 0.342003
O 1.069922 -0.279903 1.789095
O 1.322764 -1.006096 -0.646251
O 1.255967 1.411369 -0.150942
H 2.019283 1.323568 -0.542411
9
Time step 2018
C -0.946363 -0.001602 -0.255049
F -0.887006 0.175926 -1.660271
F -1.539799 1.129068 0.329947
F -1.504382 -1.215099 0.109490
S 0.803184 -0.156923 0.341752
O 1.070020 -0.279723 1.790448
O 1.320962 -1.005971 -0.647108
O 1.256159 1.410316 -0.151121
H 2.011726 1.324820 -0.538258
9
Time step 2019
C -0.947934 -0.001135 -0.255206
F -0.885909 0.176168 -1.660536
F -1.539475 1.128869 0.329873
F -1.503400 -1.215622 0.109871
S 0.803338 -0.156466 0.341507
O 1.070111 -0.279542 1.791790
O 1.319173 -1.005864 -0.647977
O 1.256301 1.409263 -0.151272
H 2.004925 1.325979 -0.534504
9
Time step 2020
C -0.949510 -0.000662 -0.255365
F -0.884814 0.176407 -1.660785
F -1.539149 1.128655 0.329792
F -1.502419 -1.216134 0.110248
S 0.803494 -0.155999 0.341268
O 1.070196 -0.279361 1.793122
O 1.317395 -1.005773 -0.648859
O 1.256390 1.408213 -0.151391
H 1.998952 1.327037 -0.531187
9
Time step 2021
C -0.951092 -0.000181 -0.255527
F -0.883723 0.176644 -1.661018
F -1.538821 1.128429 0.329707
F -1.501439 -1.216635 0.110621
S 0.803651 -0.155521 0.341036
O 1.070273 -0.279181 1.794443
O 1.315629 -1.005700 -0.649753
O 1.256421 1.407166 -0.151478
H 1.993876 1.327989 -0.528341
9
Time step 2022
C -0.952680 0.000310 -0.255693
F -0.882634 0.176877 -1.661233
F -1.538489 1.128189 0.329616
F -1.500457 -1.217124 0.110990
S 0.803808 -0.155032 0.340810
O 1.070343 -0.279000 1.795753
O 1.313875 -1.005644 -0.650659
O 1.256390 1.406121 -0.151530
H 1.989751 1.328833 -0.525996
9
Time step 2023
C -0.954273 0.000811 -0.255863
F -0.881548 0.177107 -1.661430
F -1.538156 1.127935 0.329520
F -1.499476 -1.217603 0.111355
S 0.803965 -0.154532 0.340592
O 1.070407 -0.278821 1.797051
O 1.312132 -1.005607 -0.651577
O 1.256294 1.405079 -0.151545
H 1.986625 1.329567 -0.524176
9
Time step 2024
C -0.955867 0.001323 -0.256038
F -0.880466 0.177332 -1.661609
F -1.537819 1.127668 0.329417
F -1.498494 -1.218070 0.111715
S 0.804121 -0.154021 0.340382
O 1.070464 -0.278641 1.798337
O 1.310403 -1.005589 -0.652508
O 1.256131 1.404041 -0.151523
H 1.984531 1.330193 -0.522899
9
Time step 2025
C -0.957462 0.001844 -0.256216
F -0.879388 0.177555 -1.661770
F -1.537480 1.127386 0.329308
F -1.497513 -1.218525 0.112070
S 0.804277 -0.153499 0.340180
O 1.070514 -0.278461 1.799611
O 1.308685 -1.005590 -0.653453
O 1.255900 1.403006 -0.151462
H 1.983490 1.330715 -0.522173
9
Time step 2026
C -0.959055 0.002374 -0.256395
F -0.878316 0.177773 -1.661912
F -1.537139 1.127089 0.329192
F -1.496532 -1.218966 0.112420
S 0.804432 -0.152967 0.339986
O 1.070559 -0.278280 1.800872
O 1.306980 -1.005609 -0.654411
O 1.255601 1.401973 -0.151362
H 1.983511 1.331135 -0.522001
9
Time step 2027
C -0.960645 0.002910 -0.256577
F -0.877249 0.177989 -1.662036
F -1.536795 1.126779 0.329069
F -1.495552 -1.219394 0.112765
S 0.804587 -0.152424 0.339800
O 1.070597 -0.278099 1.802121
O 1.305287 -1.005647 -0.655383
O 1.255232 1.400943 -0.151224
H 1.984590 1.331458 -0.522378
9
Time step 2028
C -0.962234 0.003453 -0.256759
F -0.876187 0.178202 -1.662143
F -1.536451 1.126453 0.328939
F -1.494573 -1.219808 0.113105
S 0.804742 -0.151871 0.339623
O 1.070629 -0.277917 1.803356
O 1.303607 -1.005703 -0.656369
O 1.254796 1.399915 -0.151047
H 1.986714 1.331687 -0.523294
9
Time step 2029
C -0.963823 0.004001 -0.256943
F -0.875130 0.178411 -1.662233
F -1.536105 1.126114 0.328802
F -1.493594 -1.220207 0.113440
S 0.804896 -0.151308 0.339455
O 1.070655 -0.277734 1.804578
O 1.301938 -1.005778 -0.657367
O 1.254294 1.398889 -0.150834
H 1.989852 1.331828 -0.524732
9
Time step 2030
C -0.965412 0.004555 -0.257129
F -0.874077 0.178618 -1.662306
F -1.535758 1.125762 0.328659
F -1.492615 -1.220594 0.113770
S 0.805051 -0.150734 0.339294
O 1.070675 -0.277551 1.805787
O 1.300280 -1.005872 -0.658378
O 1.253729 1.397866 -0.150586
H 1.993967 1.331883 -0.526673
9
Time step 2031
C -0.967001 0.005114 -0.257317
F -0.873028 0.178820 -1.662362
F -1.535410 1.125397 0.328511
F -1.491636 -1.220967 0.114094
S 0.805206 -0.150148 0.339143
O 1.070689 -0.277370 1.806982
O 1.298635 -1.005985 -0.659401
O 1.253105 1.396845 -0.150304
H 1.999007 1.331858 -0.529090
9
Time step 2032
C -0.968591 0.005678 -0.257506
F -0.871983 0.179020 -1.662402
F -1.535061 1.125019 0.328358
F -1.490658 -1.221327 0.114413
S 0.805361 -0.149551 0.338999
O 1.070697 -0.277189 1.808162
O 1.297001 -1.006117 -0.660435
O 1.252425 1.395825 -0.149990
H 2.004913 1.331756 -0.531955
9
Time step 2033
C -0.970180 0.006247 -0.257696
F -0.870944 0.179216 -1.662425
F -1.534712 1.124629 0.328199
F -1.489681 -1.221675 0.114726
S 0.805517 -0.148942 0.338865
O 1.070699 -0.277008 1.809328
O 1.295379 -1.006269 -0.661480
O 1.251694 1.394808 -0.149648
H 2.011619 1.331580 -0.535234
9
Time step 2034
C -0.971765 0.006821 -0.257886
F -0.869910 0.179410 -1.662431
F -1.534363 1.124226 0.328034
F -1.488704 -1.222010 0.115032
S 0.805671 -0.148323 0.338739
O 1.070695 -0.276828 1.810478
O 1.293769 -1.006439 -0.662537
O 1.250916 1.393791 -0.149278
H 2.019052 1.331334 -0.538891
9
Time step 2035
C -0.973345 0.007399 -0.258076
F -0.868881 0.179601 -1.662420
F -1.534014 1.123811 0.327863
F -1.487728 -1.222333 0.115333
S 0.805825 -0.147693 0.338623
O 1.070686 -0.276647 1.811611
O 1.292172 -1.006628 -0.663605
O 1.250097 1.392775 -0.148884
H 2.027139 1.331023 -0.542889
9
Time step 2036
C -0.974921 0.007981 -0.258266
F -0.867859 0.179790 -1.662392
F -1.533666 1.123385 0.327685
F -1.486753 -1.222644 0.115628
S 0.805977 -0.147054 0.338516
O 1.070671 -0.276464 1.812728
O 1.290588 -1.006835 -0.664684
O 1.249240 1.391760 -0.148466
H 2.035803 1.330651 -0.547188
9
Time step 2037
C -0.976491 0.008567 -0.258455
F -0.866841 0.179978 -1.662348
F -1.533318 1.122946 0.327501
F -1.485779 -1.222942 0.115918
S 0.806128 -0.146406 0.338419
O 1.070651 -0.276280 1.813825
O 1.289016 -1.007060 -0.665775
O 1.248351 1.390745 -0.148028
H 2.044970 1.330224 -0.551748
9
Time step 2038
C -0.978055 0.009156 -0.258645
F -0.865829 0.180163 -1.662288
F -1.532970 1.122496 0.327310
F -1.484805 -1.223228 0.116203
S 0.806278 -0.145749 0.338332
O 1.070625 -0.276095 1.814905
O 1.287456 -1.007302 -0.666876
O 1.247434 1.389730 -0.147572
H 2.054567 1.329749 -0.556530
9
Time step 2039
C -0.979612 0.009749 -0.258834
F -0.864822 0.180346 -1.662212
F -1.532621 1.122035 0.327114
F -1.483832 -1.223502 0.116483
S 0.806425 -0.145083 0.338254
O 1.070595 -0.275909 1.815965
O 1.285909 -1.007562 -0.667987
O 1.246493 1.388716 -0.147100
H 2.064522 1.329234 -0.561496
9
Time step 2040
C -0.981161 0.010347 -0.259024
F -0.863821 0.180526 -1.662121
F -1.532273 1.121563 0.326912
F -1.482861 -1.223764 0.116758
S 0.806571 -0.144409 0.338185
O 1.070559 -0.275721 1.817007
O 1.284374 -1.007838 -0.669108
O 1.245533 1.387702 -0.146613
H 2.074766 1.328688 -0.566611
9
Time step 2041
C -0.982700 0.010950 -0.259213
F -0.862826 0.180702 -1.662014
F -1.531926 1.121079 0.326705
F -1.481892 -1.224014 0.117027
S 0.806716 -0.143726 0.338125
O 1.070518 -0.275533 1.818030
O 1.282850 -1.008131 -0.670239
O 1.244557 1.386689 -0.146115
H 2.085231 1.328118 -0.571842
9
Time step 2042
C -0.984226 0.011559 -0.259403
F -0.861837 0.180874 -1.661891
F -1.531579 1.120585 0.326492
F -1.480926 -1.224252 0.117292
S 0.806859 -0.143036 0.338074
O 1.070473 -0.275344 1.819035
O 1.281338 -1.008441 -0.671378
O 1.243571 1.385675 -0.145608
H 2.095855 1.327534 -0.577156
9
Time step 2043
C -0.985740 0.012172 -0.259594
F -0.860855 0.181043 -1.661753
F -1.531235 1.120079 0.326273
F -1.479963 -1.224477 0.117551
S 0.807001 -0.142338 0.338031
O 1.070422 -0.275155 1.820023
O 1.279838 -1.008765 -0.672526
O 1.242577 1.384660 -0.145092
H 2.106577 1.326940 -0.582526
9
Time step 2044
C -0.987241 0.012790 -0.259787
F -0.859879 0.181208 -1.661599
F -1.530892 1.119564 0.326049
F -1.479003 -1.224691 0.117805
S 0.807143 -0.141632 0.337996
O 1.070366 -0.274966 1.820992
O 1.278349 -1.009105 -0.673682
O 1.241581 1.383646 -0.144571
H 2.117339 1.326341 -0.587923
9
Time step 2045
C -0.988730 0.013411 -0.259983
F -0.858910 0.181370 -1.661428
F -1.530550 1.119039 0.325819
F -1.478044 -1.224894 0.118055
S 0.807283 -0.140919 0.337970
O 1.070306 -0.274778 1.821943
O 1.276871 -1.009460 -0.674845
O 1.240584 1.382630 -0.144047
H 2.128089 1.325739 -0.593321
9
Time step 2046
C -0.990209 0.014032 -0.260184
F -0.857947 0.181530 -1.661239
F -1.530211 1.118505 0.325584
F -1.477088 -1.225085 0.118299
S 0.807423 -0.140198 0.337953
O 1.070241 -0.274590 1.822877
O 1.275403 -1.009831 -0.676016
O 1.239591 1.381615 -0.143520
H 2.138781 1.325135 -0.598695
9
Time step 2047
C -0.991677 0.014653 -0.260388
F -0.856990 0.181686 -1.661033
F -1.529872 1.117963 0.325344
F -1.476133 -1.225264 0.118539
S 0.807561 -0.139469 0.337944
O 1.070170 -0.274402 1.823791
O 1.273945 -1.010217 -0.677194
O 1.238602 1.380599 -0.142994
H 2.149368 1.324528 -0.604020
9
Time step 2048
C -0.993131 0.015274 -0.260596
F -0.856038 0.181840 -1.660808
F -1.529535 1.117411 0.325098
F -1.475182 -1.225430 0.118773
S 0.807699 -0.138733 0.337944
O 1.070095 -0.274215 1.824686
O 1.272498 -1.010619 -0.678378
O 1.237621 1.379584 -0.142469
H 2.159813 1.323919 -0.609276
9
Time step 2049
C -0.994567 0.015895 -0.260805
F -0.855092 0.181992 -1.660565
F -1.529200 1.116850 0.324846
F -1.474233 -1.225584 0.119000
S 0.807836 -0.137989 0.337952
O 1.070014 -0.274028 1.825562
O 1.271060 -1.011036 -0.679570
O 1.236649 1.378571 -0.141947
H 2.170079 1.323305 -0.614442
9
Time step 2050
C -0.995984 0.016517 -0.261014
F -0.854154 0.182140 -1.660304
F -1.528868 1.116277 0.324589
F -1.473289 -1.225723 0.119221
S 0.807972 -0.137240 0.337968
O 1.069928 -0.273841 1.826419
O 1.269633 -1.011468 -0.680769
O 1.235689 1.377558 -0.141430
H 2.180133 1.322687 -0.619500
9
Time step 2051
C -0.997378 0.017139 -0.261221
F -0.853222 0.182286 -1.660024
F -1.528540 1.115695 0.324325
F -1.472348 -1.225849 0.119435
S 0.808107 -0.136485 0.337994
O 1.069836 -0.273653 1.827256
O 1.268215 -1.011914 -0.681975
O 1.234743 1.376548 -0.140919
H 2.189946 1.322065 -0.624436
9
Time step 2052
C -0.998751 0.017762 -0.261427
F -0.852299 0.182429 -1.659728
F -1.528215 1.115102 0.324055
F -1.471410 -1.225962 0.119643
S 0.808241 -0.135726 0.338028
O 1.069739 -0.273463 1.828075
O 1.266806 -1.012373 -0.683189
O 1.233813 1.375540 -0.140414
H 2.199491 1.321438 -0.629235
9
Time step 2053
C -1.000105 0.018384 -0.261632
F -0.851383 0.182571 -1.659416
F -1.527894 1.114500 0.323779
F -1.470475 -1.226061 0.119845
S 0.808375 -0.134963 0.338072
O 1.069635 -0.273272 1.828876
O 1.265408 -1.012845 -0.684410
O 1.232900 1.374535 -0.139917
H 2.208745 1.320807 -0.633886
9
Time step 2054
C -1.001440 0.019005 -0.261837
F -0.850474 0.182710 -1.659088
F -1.527574 1.113888 0.323498
F -1.469542 -1.226147 0.120041
S 0.808507 -0.134196 0.338125
O 1.069526 -0.273081 1.829657
O 1.264019 -1.013331 -0.685637
O 1.232006 1.373533 -0.139429
H 2.217688 1.320170 -0.638381
9
Time step 2055
C -1.002759 0.019623 -0.262043
F -0.849573 0.182847 -1.658745
F -1.527257 1.113269 0.323212
F -1.468611 -1.226221 0.120232
S 0.808638 -0.133423 0.338187
O 1.069410 -0.272890 1.830420
O 1.262639 -1.013831 -0.686871
O 1.231133 1.372535 -0.138949
H 2.226300 1.319526 -0.642710
9
Time step 2056
C -1.004061 0.020240 -0.262252
F -0.848678 0.182981 -1.658387
F -1.526942 1.112641 0.322923
F -1.467683 -1.226283 0.120418
S 0.808768 -0.132645 0.338257
O 1.069289 -0.272699 1.831164
O 1.261270 -1.014344 -0.688110
O 1.230281 1.371540 -0.138478
H 2.234567 1.318873 -0.646868
9
Time step 2057
C -1.005343 0.020856 -0.262461
F -0.847791 0.183112 -1.658014
F -1.526631 1.112004 0.322630
F -1.466758 -1.226332 0.120599
S 0.808896 -0.131862 0.338335
O 1.069161 -0.272509 1.831888
O 1.259912 -1.014871 -0.689354
O 1.229452 1.370550 -0.138016
H 2.242475 1.318208 -0.650849
9
Time step 2058
C -1.006604 0.021472 -0.262671
F -0.846912 0.183240 -1.657627
F -1.526323 1.111359 0.322333
F -1.465838 -1.226369 0.120774
S 0.809024 -0.131073 0.338421
O 1.069028 -0.272320 1.832592
O 1.258565 -1.015412 -0.690601
O 1.228646 1.369564 -0.137564
H 2.250010 1.317530 -0.654646
9
Time step 2059
C -1.007841 0.022089 -0.262878
F -0.846041 0.183366 -1.657225
F -1.526021 1.110705 0.322032
F -1.464923 -1.226392 0.120944
S 0.809150 -0.130281 0.338514
O 1.068890 -0.272131 1.833275
O 1.257228 -1.015965 -0.691852
O 1.227864 1.368583 -0.137121
H 2.257161 1.316838 -0.658255
9
Time step 2060
C -1.009054 0.022704 -0.263083
F -0.845179 0.183489 -1.656808
F -1.525725 1.110042 0.321725
F -1.464011 -1.226403 0.121108
S 0.809276 -0.129485 0.338615
O 1.068746 -0.271941 1.833936
O 1.255904 -1.016530 -0.693105
O 1.227108 1.367604 -0.136687
H 2.263921 1.316134 -0.661669
9
Time step 2061
C -1.010246 0.023318 -0.263285
F -0.844325 0.183611 -1.656377
F -1.525434 1.109371 0.321414
F -1.463103 -1.226402 0.121268
S 0.809400 -0.128688 0.338722
O 1.068596 -0.271750 1.834576
O 1.254590 -1.017106 -0.694361
O 1.226377 1.366630 -0.136262
H 2.270279 1.315418 -0.664881
9
Time step 2062
C -1.011419 0.023926 -0.263485
F -0.843478 0.183731 -1.655932
F -1.525147 1.108694 0.321097
F -1.462199 -1.226388 0.121422
S 0.809524 -0.127888 0.338836
O 1.068442 -0.271557 1.835194
O 1.253286 -1.017694 -0.695619
O 1.225672 1.365659 -0.135847
H 2.276231 1.314695 -0.667885
9
Time step 2063
C -1.012572 0.024527 -0.263683
F -0.842639 0.183850 -1.655474
F -1.524863 1.108011 0.320776
F -1.461298 -1.226362 0.121571
S 0.809646 -0.127085 0.338957
O 1.068282 -0.271361 1.835791
O 1.251993 -1.018292 -0.696879
O 1.224992 1.364691 -0.135441
H 2.281772 1.313965 -0.670675
9
Time step 2064
C -1.013706 0.025121 -0.263882
F -0.841806 0.183968 -1.655001
F -1.524583 1.107324 0.320453
F -1.460401 -1.226325 0.121715
S 0.809768 -0.126280 0.339084
O 1.068118 -0.271165 1.836367
O 1.250709 -1.018901 -0.698141
O 1.224339 1.363727 -0.135045
H 2.286898 1.313232 -0.673247
9
Time step 2065
C -1.014818 0.025707 -0.264083
F -0.840982 0.184083 -1.654515
F -1.524307 1.106632 0.320126
F -1.459507 -1.226276 0.121854
S 0.809888 -0.125471 0.339217
O 1.067948 -0.270967 1.836922
O 1.249435 -1.019521 -0.699406
O 1.223711 1.362766 -0.134658
H 2.291609 1.312496 -0.675601
9
Time step 2066
C -1.015903 0.026287 -0.264286
F -0.840165 0.184195 -1.654014
F -1.524037 1.105935 0.319798
F -1.458619 -1.226215 0.121987
S 0.810007 -0.124659 0.339357
O 1.067774 -0.270769 1.837457
O 1.248170 -1.020153 -0.700671
O 1.223109 1.361809 -0.134283
H 2.295902 1.311759 -0.677736
9
Time step 2067
C -1.016959 0.026864 -0.264491
F -0.839356 0.184305 -1.653499
F -1.523773 1.105233 0.319466
F -1.457736 -1.226141 0.122116
S 0.810125 -0.123844 0.339502
O 1.067594 -0.270571 1.837972
O 1.246914 -1.020795 -0.701938
O 1.222533 1.360855 -0.133918
H 2.299775 1.311019 -0.679654
9
Time step 2068
C -1.017984 0.027437 -0.264696
F -0.838557 0.184411 -1.652969
F -1.523516 1.104525 0.319132
F -1.456858 -1.226056 0.122238
S 0.810243 -0.123027 0.339654
O 1.067411 -0.270372 1.838467
O 1.245667 -1.021447 -0.703205
O 1.221984 1.359905 -0.133564
H 2.303225 1.310278 -0.681357
9
Time step 2069
C -1.018980 0.028008 -0.264903
F -0.837767 0.184514 -1.652424
F -1.523268 1.103812 0.318793
F -1.455984 -1.225959 0.122355
S 0.810360 -0.122210 0.339811
O 1.067222 -0.270173 1.838941
O 1.244429 -1.022108 -0.704472
O 1.221461 1.358960 -0.133221
H 2.306250 1.309536 -0.682846
9
Time step 2070
C -1.019946 0.028575 -0.265110
F -0.836986 0.184616 -1.651863
F -1.523027 1.103094 0.318451
F -1.455116 -1.225849 0.122465
S 0.810477 -0.121393 0.339975
O 1.067030 -0.269972 1.839393
O 1.243199 -1.022776 -0.705737
O 1.220966 1.358019 -0.132889
H 2.308846 1.308791 -0.684122
9
Time step 2071
C -1.020886 0.029136 -0.265319
F -0.836213 0.184715 -1.651286
F -1.522792 1.102371 0.318104
F -1.454252 -1.225728 0.122570
S 0.810593 -0.120577 0.340144
O 1.066833 -0.269769 1.839825
O 1.241977 -1.023452 -0.707001
O 1.220499 1.357083 -0.132569
H 2.311009 1.308043 -0.685182
9
Time step 2072
C -1.021799 0.029689 -0.265529
F -0.835449 0.184813 -1.650693
F -1.522563 1.101644 0.317753
F -1.453393 -1.225596 0.122667
S 0.810708 -0.119762 0.340319
O 1.066632 -0.269564 1.840234
O 1.240763 -1.024134 -0.708263
O 1.220060 1.356154 -0.132261
H 2.312737 1.307292 -0.686023
9
Time step 2073
C -1.022683 0.030234 -0.265740
F -0.834694 0.184909 -1.650085
F -1.522341 1.100913 0.317398
F -1.452540 -1.225451 0.122759
S 0.810822 -0.118950 0.340501
O 1.066428 -0.269357 1.840622
O 1.239558 -1.024821 -0.709522
O 1.219650 1.355231 -0.131966
H 2.314027 1.306537 -0.686641
9
Time step 2074
C -1.023535 0.030771 -0.265953
F -0.833948 0.185003 -1.649460
F -1.522125 1.100178 0.317041
F -1.451693 -1.225294 0.122844
S 0.810934 -0.118139 0.340689
O 1.066219 -0.269148 1.840987
O 1.238360 -1.025515 -0.710779
O 1.219269 1.354316 -0.131683
H 2.314877 1.305776 -0.687034
9
Time step 2075
C -1.024354 0.031301 -0.266166
F -0.833211 0.185094 -1.648821
F -1.521917 1.099439 0.316680
F -1.450852 -1.225126 0.122922
S 0.811045 -0.117331 0.340883
O 1.066007 -0.268938 1.841330
O 1.237170 -1.026214 -0.712033
O 1.218917 1.353410 -0.131413
H 2.315286 1.305010 -0.687198
9
Time step 2076
C -1.025137 0.031824 -0.266379
F -0.832484 0.185183 -1.648168
F -1.521716 1.098697 0.316315
F -1.450017 -1.224946 0.122995
S 0.811154 -0.116525 0.341084
O 1.065790 -0.268728 1.841650
O 1.235988 -1.026920 -0.713284
O 1.218594 1.352513 -0.131158
H 2.315253 1.304240 -0.687133
9
Time step 2077
C -1.025887 0.032339 -0.266591
F -0.831767 0.185269 -1.647500
F -1.521524 1.097951 0.315947
F -1.449187 -1.224754 0.123061
S 0.811260 -0.115721 0.341292
O 1.065569 -0.268517 1.841947
O 1.234814 -1.027632 -0.714533
O 1.218302 1.351625 -0.130915
H 2.314777 1.303467 -0.686840
9
Time step 2078
C -1.026606 0.032846 -0.266802
F -0.831058 0.185353 -1.646818
F -1.521340 1.097203 0.315575
F -1.448361 -1.224551 0.123122
S 0.811365 -0.114920 0.341505
O 1.065344 -0.268305 1.842222
O 1.233648 -1.028351 -0.715779
O 1.218041 1.350748 -0.130687
H 2.313860 1.302692 -0.686321
9
Time step 2079
C -1.027297 0.033342 -0.267013
F -0.830359 0.185435 -1.646122
F -1.521162 1.096453 0.315201
F -1.447540 -1.224336 0.123177
S 0.811468 -0.114122 0.341724
O 1.065114 -0.268095 1.842476
O 1.232490 -1.029076 -0.717020
O 1.217811 1.349881 -0.130472
H 2.312501 1.301916 -0.685579
9
Time step 2080
C -1.027960 0.033827 -0.267224
F -0.829668 0.185515 -1.645412
F -1.520993 1.095700 0.314824
F -1.446722 -1.224109 0.123227
S 0.811569 -0.113325 0.341947
O 1.064879 -0.267885 1.842708
O 1.231339 -1.029806 -0.718256
O 1.217612 1.349025 -0.130270
H 2.310705 1.301138 -0.684618
9
Time step 2081
C -1.028595 0.034300 -0.267436
F -0.828985 0.185593 -1.644690
F -1.520831 1.094944 0.314446
F -1.445909 -1.223870 0.123271
S 0.811668 -0.112532 0.342175
O 1.064640 -0.267675 1.842919
O 1.230195 -1.030541 -0.719487
O 1.217443 1.348178 -0.130083
H 2.308472 1.300359 -0.683440
9
Time step 2082
C -1.029200 0.034763 -0.267649
F -0.828310 0.185669 -1.643955
F -1.520678 1.094186 0.314066
F -1.445101 -1.223618 0.123309
S 0.811767 -0.111740 0.342406
O 1.064396 -0.267466 1.843110
O 1.229058 -1.031281 -0.720710
O 1.217306 1.347340 -0.129909
H 2.305807 1.299576 -0.682048
9
Time step 2083
C -1.029770 0.035216 -0.267862
F -0.827644 0.185743 -1.643208
F -1.520534 1.093426 0.313686
F -1.444298 -1.223354 0.123342
S 0.811864 -0.110953 0.342641
O 1.064148 -0.267257 1.843282
O 1.227927 -1.032023 -0.721927
O 1.217198 1.346512 -0.129748
H 2.302711 1.298790 -0.680444
9
Time step 2084
C -1.030304 0.035659 -0.268073
F -0.826987 0.185815 -1.642449
F -1.520400 1.092662 0.313304
F -1.443501 -1.223078 0.123370
S 0.811960 -0.110169 0.342879
O 1.063895 -0.267048 1.843434
O 1.226802 -1.032769 -0.723137
O 1.217119 1.345692 -0.129602
H 2.299189 1.298001 -0.678626
9
Time step 2085
C -1.030800 0.036092 -0.268281
F -0.826340 0.185885 -1.641680
F -1.520275 1.091898 0.312920
F -1.442709 -1.222791 0.123391
S 0.812054 -0.109389 0.343120
O 1.063638 -0.266837 1.843566
O 1.225684 -1.033517 -0.724340
O 1.217070 1.344881 -0.129468
H 2.295242 1.297210 -0.676595
9
Time step 2086
C -1.031259 0.036513 -0.268486
F -0.825703 0.185954 -1.640901
F -1.520159 1.091132 0.312535
F -1.441922 -1.222493 0.123406
S 0.812147 -0.108615 0.343365
O 1.063377 -0.266626 1.843678
O 1.224573 -1.034268 -0.725537
O 1.217049 1.344079 -0.129347
H 2.290873 1.296417 -0.674350
9
Time step 2087
C -1.031683 0.036921 -0.268690
F -0.825077 0.186021 -1.640111
F -1.520051 1.090366 0.312149
F -1.441142 -1.222184 0.123416
S 0.812236 -0.107844 0.343614
O 1.063113 -0.266413 1.843771
O 1.223469 -1.035023 -0.726726
O 1.217058 1.343287 -0.129239
H 2.286087 1.295626 -0.671890
9
Time step 2088
C -1.032074 0.037314 -0.268895
F -0.824460 0.186087 -1.639311
F -1.519952 1.089601 0.311762
F -1.440367 -1.221864 0.123420
S 0.812323 -0.107078 0.343866
O 1.062846 -0.266199 1.843843
O 1.222373 -1.035780 -0.727908
O 1.217096 1.342505 -0.129144
H 2.280887 1.294835 -0.669215
9
Time step 2089
C -1.032430 0.037692 -0.269101
F -0.823852 0.186152 -1.638499
F -1.519860 1.088835 0.311374
F -1.439599 -1.221532 0.123419
S 0.812408 -0.106317 0.344121
O 1.062576 -0.265984 1.843896
O 1.221285 -1.036541 -0.729083
O 1.217164 1.341734 -0.129062
H 2.275280 1.294044 -0.666328
9
Time step 2090
C -1.032752 0.038056 -0.269311
F -0.823254 0.186215 -1.637675
F -1.519779 1.088069 0.310986
F -1.438838 -1.221189 0.123413
S 0.812490 -0.105561 0.344380
O 1.062303 -0.265769 1.843927
O 1.220206 -1.037304 -0.730251
O 1.217260 1.340975 -0.128993
H 2.269273 1.293252 -0.663233
9
Time step 2091
C -1.033037 0.038406 -0.269523
F -0.822664 0.186277 -1.636839
F -1.519707 1.087304 0.310599
F -1.438084 -1.220835 0.123402
S 0.812570 -0.104811 0.344642
O 1.062027 -0.265553 1.843938
O 1.219134 -1.038068 -0.731410
O 1.217384 1.340227 -0.128937
H 2.262875 1.292455 -0.659934
9
Time step 2092
C -1.033284 0.038744 -0.269737
F -0.822084 0.186337 -1.635989
F -1.519647 1.086539 0.310210
F -1.437337 -1.220470 0.123387
S 0.812649 -0.104068 0.344906
O 1.061747 -0.265337 1.843928
O 1.218069 -1.038834 -0.732561
O 1.217536 1.339491 -0.128893
H 2.256092 1.291652 -0.656436
9
Time step 2093
C -1.033492 0.039071 -0.269951
F -0.821513 0.186395 -1.635128
F -1.519597 1.085775 0.309820
F -1.436597 -1.220094 0.123367
S 0.812725 -0.103331 0.345173
O 1.061462 -0.265119 1.843897
O 1.217012 -1.039601 -0.733702
O 1.217715 1.338767 -0.128862
H 2.248932 1.290841 -0.652744
9
Time step 2094
C -1.033664 0.039385 -0.270164
F -0.820952 0.186452 -1.634253
F -1.519557 1.085012 0.309428
F -1.435862 -1.219709 0.123341
S 0.812800 -0.102603 0.345441
O 1.061174 -0.264901 1.843845
O 1.215962 -1.040366 -0.734832
O 1.217919 1.338054 -0.128843
H 2.241404 1.290021 -0.648861
9
Time step 2095
C -1.033798 0.039687 -0.270376
F -0.820401 0.186508 -1.633367
F -1.519528 1.084251 0.309034
F -1.435133 -1.219314 0.123309
S 0.812874 -0.101883 0.345711
O 1.060883 -0.264680 1.843772
O 1.214919 -1.041131 -0.735952
O 1.218150 1.337353 -0.128836
H 2.233513 1.289193 -0.644791
9
Time step 2096
C -1.033895 0.039975 -0.270586
F -0.819861 0.186563 -1.632469
F -1.519508 1.083492 0.308639
F -1.434409 -1.218908 0.123271
S 0.812945 -0.101171 0.345983
O 1.060587 -0.264457 1.843678
O 1.213883 -1.041894 -0.737061
O 1.218407 1.336663 -0.128839
H 2.225266 1.288362 -0.640534
9
Time step 2097
C -1.033955 0.040248 -0.270796
F -0.819332 0.186616 -1.631559
F -1.519499 1.082735 0.308244
F -1.433691 -1.218492 0.123228
S 0.813015 -0.100469 0.346256
O 1.060288 -0.264232 1.843563
O 1.212854 -1.042656 -0.738158
O 1.218690 1.335985 -0.128854
H 2.216672 1.287530 -0.636095
9
Time step 2098
C -1.033975 0.040506 -0.271007
F -0.818813 0.186667 -1.630638
F -1.519501 1.081979 0.307848
F -1.432980 -1.218065 0.123178
S 0.813084 -0.099777 0.346531
O 1.059985 -0.264005 1.843427
O 1.211831 -1.043415 -0.739243
O 1.218999 1.335319 -0.128881
H 2.207737 1.286704 -0.631476
9
Time step 2099
C -1.033954 0.040750 -0.271220
F -0.818306 0.186717 -1.629707
F -1.519514 1.081225 0.307453
F -1.432276 -1.217626 0.123123
S 0.813150 -0.099094 0.346809
O 1.059679 -0.263776 1.843271
O 1.210814 -1.044173 -0.740316
O 1.219334 1.334667 -0.128920
H 2.198473 1.285886 -0.626684
9
Time step 2100
C -1.033893 0.040979 -0.271433
F -0.817809 0.186766 -1.628763
F -1.519539 1.080472 0.307057
F -1.431578 -1.217174 0.123062
S 0.813215 -0.098421 0.347089
O 1.059369 -0.263545 1.843093
O 1.209803 -1.044929 -0.741378
O 1.219693 1.334027 -0.128970
H 2.188891 1.285082 -0.621727
9
Time step 2101
C -1.033791 0.041191 -0.271647
F -0.817321 0.186812 -1.627809
F -1.519576 1.079720 0.306662
F -1.430888 -1.216712 0.122996
S 0.813278 -0.097758 0.347370
O 1.059056 -0.263313 1.842895
O 1.208798 -1.045684 -0.742428
O 1.220077 1.333402 -0.129032
H 2.179008 1.284292 -0.616617
9
Time step 2102
C -1.033652 0.041387 -0.271861
F -0.816842 0.186858 -1.626844
F -1.519623 1.078971 0.306266
F -1.430206 -1.216238 0.122924
S 0.813338 -0.097104 0.347654
O 1.058740 -0.263080 1.842676
O 1.207799 -1.046437 -0.743466
O 1.220483 1.332790 -0.129104
H 2.168843 1.283518 -0.611366
9
Time step 2103
C -1.033476 0.041565 -0.272072
F -0.816372 0.186902 -1.625868
F -1.519680 1.078224 0.305870
F -1.429529 -1.215753 0.122846
S 0.813396 -0.096459 0.347939
O 1.058421 -0.262845 1.842437
O 1.206806 -1.047188 -0.744492
O 1.220912 1.332192 -0.129185
H 2.158419 1.282759 -0.605992
9
Time step 2104
C -1.033266 0.041726 -0.272282
F -0.815911 0.186944 -1.624882
F -1.519748 1.077480 0.305474
F -1.428860 -1.215258 0.122762
S 0.813452 -0.095824 0.348225
O 1.058099 -0.262609 1.842179
O 1.205818 -1.047938 -0.745506
O 1.221360 1.331608 -0.129275
H 2.147763 1.282014 -0.600509
9
Time step 2105
C -1.033020 0.041869 -0.272488
F -0.815458 0.186985 -1.623888
F -1.519827 1.076740 0.305079
F -1.428196 -1.214754 0.122672
S 0.813504 -0.095199 0.348512
O 1.057775 -0.262371 1.841901
O 1.204836 -1.048684 -0.746506
O 1.221829 1.331037 -0.129371
H 2.136905 1.281282 -0.594935
9
Time step 2106
C -1.032736 0.041996 -0.272691
F -0.815014 0.187025 -1.622884
F -1.519918 1.076005 0.304685
F -1.427539 -1.214240 0.122575
S 0.813554 -0.094585 0.348799
O 1.057448 -0.262132 1.841605
O 1.203861 -1.049427 -0.747493
O 1.222315 1.330479 -0.129474
H 2.125880 1.280562 -0.589291
9
Time step 2107
C -1.032413 0.042107 -0.272892
F -0.814580 0.187062 -1.621872
F -1.520023 1.075274 0.304292
F -1.426887 -1.213718 0.122473
S 0.813599 -0.093981 0.349087
O 1.057120 -0.261891 1.841291
O 1.202891 -1.050166 -0.748467
O 1.222817 1.329935 -0.129582
H 2.114728 1.279853 -0.583594
9
Time step 2108
C -1.032048 0.042203 -0.273090
F -0.814156 0.187099 -1.620852
F -1.520141 1.074548 0.303900
F -1.426242 -1.213187 0.122364
S 0.813641 -0.093390 0.349375
O 1.056789 -0.261649 1.840958
O 1.201928 -1.050901 -0.749426
O 1.223332 1.329405 -0.129694
H 2.103490 1.279157 -0.577866
9
Time step 2109
C -1.031641 0.042283 -0.273286
F -0.813742 0.187134 -1.619824
F -1.520272 1.073827 0.303508
F -1.425604 -1.212646 0.122250
S 0.813678 -0.092811 0.349663
O 1.056456 -0.261405 1.840606
O 1.200972 -1.051631 -0.750371
O 1.223856 1.328889 -0.129810
H 2.092216 1.278473 -0.572131
9
Time step 2110
C -1.031192 0.042344 -0.273480
F -0.813338 0.187168 -1.618787
F -1.520414 1.073111 0.303118
F -1.424972 -1.212096 0.122130
S 0.813711 -0.092243 0.349953
O 1.056121 -0.261160 1.840236
O 1.200022 -1.052357 -0.751301
O 1.224387 1.328390 -0.129928
H 2.080957 1.277800 -0.566412
9
Time step 2111
C -1.030701 0.042387 -0.273673
F -0.812944 0.187200 -1.617742
F -1.520567 1.072399 0.302730
F -1.424347 -1.211536 0.122004
S 0.813739 -0.091687 0.350243
O 1.055783 -0.260915 1.839847
O 1.199079 -1.053080 -0.752217
O 1.224921 1.327907 -0.130046
H 2.069771 1.277135 -0.560739
9
Time step 2112
C -1.030171 0.042409 -0.273864
F -0.812561 0.187231 -1.616689
F -1.520730 1.071691 0.302343
F -1.423729 -1.210965 0.121874
S 0.813762 -0.091143 0.350533
O 1.055442 -0.260669 1.839439
O 1.198143 -1.053798 -0.753119
O 1.225454 1.327442 -0.130162
H 2.058717 1.276475 -0.555140
9
Time step 2113
C -1.029602 0.042413 -0.274053
F -0.812188 0.187261 -1.615629
F -1.520904 1.070987 0.301957
F -1.423118 -1.210385 0.121738
S 0.813781 -0.090610 0.350824
O 1.055099 -0.260422 1.839012
O 1.197215 -1.054512 -0.754005
O 1.225983 1.326994 -0.130275
H 2.047860 1.275814 -0.549650
9
Time step 2114
C -1.028992 0.042400 -0.274239
F -0.811824 0.187290 -1.614561
F -1.521089 1.070287 0.301573
F -1.422515 -1.209795 0.121597
S 0.813796 -0.090089 0.351116
O 1.054753 -0.260175 1.838568
O 1.196293 -1.055221 -0.754877
O 1.226504 1.326566 -0.130382
H 2.037270 1.275147 -0.544305
9
Time step 2115
C -1.028343 0.042371 -0.274422
F -0.811471 0.187317 -1.613487
F -1.521287 1.069591 0.301189
F -1.421919 -1.209197 0.121451
S 0.813807 -0.089582 0.351407
O 1.054404 -0.259927 1.838105
O 1.195377 -1.055926 -0.755734
O 1.227013 1.326156 -0.130481
H 2.027018 1.274469 -0.539142
9
Time step 2116
C -1.027654 0.042328 -0.274599
F -0.811127 0.187343 -1.612405
F -1.521498 1.068900 0.300806
F -1.421330 -1.208591 0.121301
S 0.813814 -0.089088 0.351698
O 1.054052 -0.259679 1.837624
O 1.194468 -1.056624 -0.756575
O 1.227504 1.325764 -0.130569
H 2.017178 1.273775 -0.534203
9
Time step 2117
C -1.026925 0.042271 -0.274772
F -0.810793 0.187369 -1.611317
F -1.521721 1.068214 0.300423
F -1.420748 -1.207979 0.121145
S 0.813819 -0.088609 0.351989
O 1.053698 -0.259429 1.837126
O 1.193564 -1.057315 -0.757400
O 1.227972 1.325392 -0.130645
H 2.007830 1.273061 -0.529526
9
Time step 2118
C -1.026157 0.042198 -0.274940
F -0.810468 0.187394 -1.610223
F -1.521957 1.067534 0.300040
F -1.420173 -1.207360 0.120985
S 0.813820 -0.088143 0.352278
O 1.053340 -0.259179 1.836610
O 1.192666 -1.057999 -0.758207
O 1.228413 1.325039 -0.130706
H 1.999050 1.272326 -0.525155
9
Time step 2119
C -1.025351 0.042108 -0.275103
F -0.810152 0.187418 -1.609122
F -1.522204 1.066859 0.299660
F -1.419604 -1.206733 0.120820
S 0.813818 -0.087692 0.352566
O 1.052980 -0.258927 1.836077
O 1.191773 -1.058675 -0.758997
O 1.228821 1.324705 -0.130749
H 1.990920 1.271567 -0.521127
9
Time step 2120
C -1.024508 0.042000 -0.275264
F -0.809845 0.187441 -1.608014
F -1.522463 1.066190 0.299281
F -1.419041 -1.206096 0.120649
S 0.813812 -0.087255 0.352852
O 1.052617 -0.258674 1.835527
O 1.190885 -1.059344 -0.759769
O 1.229192 1.324390 -0.130771
H 1.983513 1.270784 -0.517484
9
Time step 2121
C -1.023627 0.041871 -0.275422
F -0.809547 0.187463 -1.606899
F -1.522734 1.065526 0.298905
F -1.418484 -1.205450 0.120473
S 0.813802 -0.086833 0.353137
O 1.052252 -0.258420 1.834960
O 1.190002 -1.060005 -0.760523
O 1.229523 1.324095 -0.130771
H 1.976904 1.269975 -0.514262
9
Time step 2122
C -1.022708 0.041724 -0.275580
F -0.809258 0.187484 -1.605777
F -1.523018 1.064866 0.298531
F -1.417934 -1.204794 0.120292
S 0.813787 -0.086424 0.353419
O 1.051885 -0.258164 1.834377
O 1.189124 -1.060659 -0.761259
O 1.229810 1.323819 -0.130745
H 1.971157 1.269142 -0.511496
9
Time step 2123
C -1.021749 0.041558 -0.275738
F -0.808979 0.187505 -1.604648
F -1.523315 1.064210 0.298160
F -1.417390 -1.204128 0.120106
S 0.813767 -0.086031 0.353700
O 1.051516 -0.257906 1.833777
O 1.188252 -1.061307 -0.761977
O 1.230050 1.323564 -0.130693
H 1.966332 1.268283 -0.509221
9
Time step 2124
C -1.020749 0.041375 -0.275893
F -0.808710 0.187525 -1.603512
F -1.523625 1.063558 0.297790
F -1.416853 -1.203453 0.119915
S 0.813742 -0.085652 0.353978
O 1.051146 -0.257647 1.833162
O 1.187387 -1.061947 -0.762678
O 1.230240 1.323330 -0.130612
H 1.962476 1.267398 -0.507462
9
Time step 2125
C -1.019709 0.041176 -0.276045
F -0.808451 0.187544 -1.602370
F -1.523949 1.062910 0.297421
F -1.416324 -1.202769 0.119720
S 0.813712 -0.085287 0.354255
O 1.050775 -0.257388 1.832531
O 1.186528 -1.062581 -0.763361
O 1.230378 1.323118 -0.130502
H 1.959631 1.266485 -0.506241
9
Time step 2126
C -1.018630 0.040960 -0.276193
F -0.808202 0.187563 -1.601221
F -1.524285 1.062268 0.297054
F -1.415803 -1.202079 0.119519
S 0.813676 -0.084938 0.354530
O 1.050402 -0.257127 1.831885
O 1.185676 -1.063208 -0.764026
O 1.230462 1.322927 -0.130361
H 1.957825 1.265541 -0.505576
9
Time step 2127
C -1.017512 0.040727 -0.276334
F -0.807962 0.187580 -1.600068
F -1.524633 1.061633 0.296689
F -1.415290 -1.201381 0.119314
S 0.813635 -0.084603 0.354802
O 1.050029 -0.256865 1.831225
O 1.184831 -1.063828 -0.764673
O 1.230491 1.322757 -0.130188
H 1.957075 1.264562 -0.505474
9
Time step 2128
C -1.016358 0.040476 -0.276470
F -0.807730 0.187596 -1.598911
F -1.524993 1.061003 0.296327
F -1.414784 -1.200676 0.119103
S 0.813588 -0.084282 0.355070
O 1.049654 -0.256602 1.830549
O 1.183993 -1.064440 -0.765303
O 1.230463 1.322608 -0.129983
H 1.957388 1.263546 -0.505937
9
Time step 2129
C -1.015168 0.040208 -0.276598
F -0.807506 0.187609 -1.597750
F -1.525366 1.060381 0.295968
F -1.414286 -1.199963 0.118886
S 0.813536 -0.083976 0.355335
O 1.049279 -0.256337 1.829860
O 1.183161 -1.065044 -0.765914
O 1.230380 1.322480 -0.129746
H 1.958757 1.262489 -0.506961
9
Time step 2130
C -1.013943 0.039924 -0.276720
F -0.807291 0.187620 -1.596585
F -1.525751 1.059765 0.295612
F -1.413794 -1.199244 0.118663
S 0.813479 -0.083684 0.355596
O 1.048902 -0.256070 1.829155
O 1.182336 -1.065640 -0.766507
O 1.230242 1.322372 -0.129477
H 1.961161 1.261389 -0.508537
9
Time step 2131
C -1.012682 0.039624 -0.276836
F -0.807084 0.187631 -1.595416
F -1.526148 1.059156 0.295259
F -1.413308 -1.198518 0.118436
S 0.813417 -0.083408 0.355854
O 1.048524 -0.255800 1.828437
O 1.181516 -1.066228 -0.767081
O 1.230052 1.322285 -0.129177
H 1.964570 1.260245 -0.510647
9
Time step 2132
C -1.011385 0.039311 -0.276945
F -0.806886 0.187640 -1.594244
F -1.526557 1.058552 0.294908
F -1.412829 -1.197786 0.118203
S 0.813351 -0.083148 0.356109
O 1.048145 -0.255528 1.827704
O 1.180702 -1.066808 -0.767638
O 1.229811 1.322220 -0.128848
H 1.968941 1.259058 -0.513272
9
Time step 2133
C -1.010052 0.038985 -0.277047
F -0.806697 0.187650 -1.593069
F -1.526979 1.057953 0.294558
F -1.412356 -1.197049 0.117966
S 0.813280 -0.082903 0.356361
O 1.047764 -0.255254 1.826956
O 1.179894 -1.067381 -0.768176
O 1.229523 1.322175 -0.128492
H 1.974220 1.257829 -0.516386
9
Time step 2134
C -1.008683 0.038648 -0.277140
F -0.806518 0.187660 -1.591890
F -1.527411 1.057357 0.294210
F -1.411891 -1.196305 0.117723
S 0.813205 -0.082673 0.356611
O 1.047382 -0.254978 1.826193
O 1.179093 -1.067947 -0.768696
O 1.229192 1.322152 -0.128112
H 1.980348 1.256560 -0.519956
9
Time step 2135
C -1.007277 0.038298 -0.277224
F -0.806349 0.187669 -1.590709
F -1.527855 1.056765 0.293862
F -1.411434 -1.195556 0.117476
S 0.813126 -0.082458 0.356859
O 1.046998 -0.254701 1.825414
O 1.178298 -1.068506 -0.769198
O 1.228822 1.322150 -0.127710
H 1.987256 1.255253 -0.523949
9
Time step 2136
C -1.005836 0.037935 -0.277298
F -0.806190 0.187679 -1.589527
F -1.528310 1.056177 0.293515
F -1.410984 -1.194801 0.117223
S 0.813043 -0.082257 0.357106
O 1.046612 -0.254424 1.824621
O 1.177511 -1.069057 -0.769681
O 1.228418 1.322169 -0.127289
H 1.994871 1.253911 -0.528327
9
Time step 2137
C -1.004360 0.037559 -0.277360
F -0.806039 0.187687 -1.588342
F -1.528776 1.055593 0.293171
F -1.410542 -1.194038 0.116966
S 0.812955 -0.082071 0.357351
O 1.046224 -0.254146 1.823813
O 1.176730 -1.069600 -0.770147
O 1.227984 1.322209 -0.126852
H 2.003119 1.252540 -0.533048
9
Time step 2138
C -1.002847 0.037167 -0.277413
F -0.805897 0.187693 -1.587156
F -1.529254 1.055016 0.292828
F -1.410107 -1.193269 0.116703
S 0.812863 -0.081900 0.357594
O 1.045834 -0.253868 1.822991
O 1.175956 -1.070134 -0.770595
O 1.227526 1.322270 -0.126401
H 2.011921 1.251146 -0.538075
9
Time step 2139
C -1.001300 0.036760 -0.277457
F -0.805764 0.187698 -1.585968
F -1.529745 1.054445 0.292488
F -1.409678 -1.192495 0.116436
S 0.812766 -0.081745 0.357833
O 1.045443 -0.253590 1.822156
O 1.175188 -1.070658 -0.771024
O 1.227049 1.322351 -0.125938
H 2.021200 1.249735 -0.543365
9
Time step 2140
C -0.999717 0.036337 -0.277493
F -0.805639 0.187703 -1.584778
F -1.530246 1.053882 0.292150
F -1.409256 -1.191715 0.116164
S 0.812664 -0.081606 0.358068
O 1.045050 -0.253310 1.821309
O 1.174426 -1.071171 -0.771434
O 1.226556 1.322453 -0.125464
H 2.030880 1.248315 -0.548883
9
Time step 2141
C -0.998101 0.035898 -0.277520
F -0.805522 0.187707 -1.583587
F -1.530760 1.053327 0.291813
F -1.408842 -1.190931 0.115888
S 0.812558 -0.081484 0.358298
O 1.044658 -0.253029 1.820451
O 1.173669 -1.071675 -0.771826
O 1.226053 1.322574 -0.124983
H 2.040891 1.246894 -0.554591
9
Time step 2142
C -0.996450 0.035445 -0.277539
F -0.805413 0.187711 -1.582395
F -1.531284 1.052778 0.291479
F -1.408435 -1.190143 0.115609
S 0.812448 -0.081378 0.358523
O 1.044264 -0.252748 1.819583
O 1.172919 -1.072169 -0.772197
O 1.225542 1.322714 -0.124495
H 2.051164 1.245476 -0.560453
9
Time step 2143
C -0.994766 0.034976 -0.277547
F -0.805311 0.187714 -1.581202
F -1.531819 1.052235 0.291146
F -1.408036 -1.189349 0.115326
S 0.812333 -0.081288 0.358741
O 1.043870 -0.252465 1.818705
O 1.172174 -1.072653 -0.772549
O 1.225027 1.322873 -0.124004
H 2.061636 1.244066 -0.566438
9
Time step 2144
C -0.993050 0.034494 -0.277545
F -0.805218 0.187718 -1.580009
F -1.532367 1.051698 0.290815
F -1.407644 -1.188549 0.115038
S 0.812216 -0.081214 0.358953
O 1.043475 -0.252182 1.817817
O 1.171434 -1.073127 -0.772880
O 1.224513 1.323050 -0.123511
H 2.072246 1.242669 -0.572512
9
Time step 2145
C -0.991302 0.033998 -0.277530
F -0.805131 0.187721 -1.578815
F -1.532925 1.051164 0.290486
F -1.407259 -1.187742 0.114747
S 0.812095 -0.081156 0.359158
O 1.043079 -0.251899 1.816920
O 1.170701 -1.073591 -0.773189
O 1.224004 1.323245 -0.123019
H 2.082935 1.241289 -0.578644
9
Time step 2146
C -0.989523 0.033487 -0.277503
F -0.805052 0.187724 -1.577622
F -1.533496 1.050635 0.290159
F -1.406882 -1.186927 0.114450
S 0.811970 -0.081114 0.359357
O 1.042682 -0.251617 1.816014
O 1.169974 -1.074043 -0.773478
O 1.223504 1.323458 -0.122530
H 2.093650 1.239930 -0.584807
9
Time step 2147
C -0.987715 0.032964 -0.277465
F -0.804981 0.187726 -1.576427
F -1.534078 1.050110 0.289833
F -1.406510 -1.186106 0.114149
S 0.811842 -0.081088 0.359549
O 1.042284 -0.251335 1.815098
O 1.169252 -1.074485 -0.773745
O 1.223015 1.323688 -0.122047
H 2.104339 1.238599 -0.590971
9
Time step 2148
C -0.985880 0.032428 -0.277416
F -0.804917 0.187727 -1.575232
F -1.534670 1.049590 0.289509
F -1.406145 -1.185279 0.113843
S 0.811710 -0.081078 0.359737
O 1.041885 -0.251054 1.814173
O 1.168537 -1.074916 -0.773991
O 1.222541 1.323935 -0.121572
H 2.114955 1.237298 -0.597111
9
Time step 2149
C -0.984017 0.031882 -0.277358
F -0.804862 0.187728 -1.574036
F -1.535272 1.049075 0.289187
F -1.405786 -1.184449 0.113533
S 0.811575 -0.081084 0.359918
O 1.041485 -0.250773 1.813239
O 1.167827 -1.075337 -0.774215
O 1.222084 1.324201 -0.121105
H 2.125456 1.236033 -0.603204
9
Time step 2150
C -0.982127 0.031328 -0.277291
F -0.804814 0.187729 -1.572841
F -1.535883 1.048565 0.288867
F -1.405434 -1.183616 0.113219
S 0.811436 -0.081105 0.360094
O 1.041084 -0.250492 1.812296
O 1.167124 -1.075749 -0.774418
O 1.221647 1.324485 -0.120648
H 2.135808 1.234804 -0.609229
9
Time step 2151
C -0.980209 0.030769 -0.277213
F -0.804775 0.187729 -1.571646
F -1.536503 1.048058 0.288550
F -1.405089 -1.182781 0.112900
S 0.811294 -0.081143 0.360264
O 1.040681 -0.250212 1.811344
O 1.166426 -1.076151 -0.774601
O 1.221231 1.324786 -0.120201
H 2.145981 1.233611 -0.615166
9
Time step 2152
C -0.978261 0.030207 -0.277124
F -0.804743 0.187728 -1.570452
F -1.537133 1.047555 0.288234
F -1.404752 -1.181944 0.112578
S 0.811148 -0.081196 0.360427
O 1.040278 -0.249932 1.810385
O 1.165734 -1.076545 -0.774763
O 1.220838 1.325106 -0.119765
H 2.155946 1.232452 -0.620999
9
Time step 2153
C -0.976283 0.029642 -0.277022
F -0.804719 0.187725 -1.569260
F -1.537773 1.047054 0.287921
F -1.404423 -1.181105 0.112253
S 0.811000 -0.081263 0.360582
O 1.039874 -0.249652 1.809418
O 1.165048 -1.076930 -0.774906
O 1.220468 1.325442 -0.119340
H 2.165680 1.231328 -0.626712
9
Time step 2154
C -0.974273 0.029074 -0.276906
F -0.804701 0.187721 -1.568070
F -1.538424 1.046557 0.287609
F -1.404101 -1.180264 0.111925
S 0.810848 -0.081346 0.360730
O 1.039468 -0.249373 1.808443
O 1.164367 -1.077306 -0.775028
O 1.220123 1.325795 -0.118928
H 2.175159 1.230238 -0.632292
9
Time step 2155
C -0.972233 0.028500 -0.276776
F -0.804690 0.187716 -1.566881
F -1.539085 1.046063 0.287299
F -1.403788 -1.179420 0.111593
S 0.810693 -0.081443 0.360870
O 1.039061 -0.249094 1.807462
O 1.163693 -1.077673 -0.775131
O 1.219803 1.326163 -0.118528
H 2.184359 1.229184 -0.637728
9
Time step 2156
C -0.970164 0.027920 -0.276633
F -0.804686 0.187712 -1.565694
F -1.539756 1.045573 0.286990
F -1.403482 -1.178573 0.111259
S 0.810536 -0.081554 0.361002
O 1.038654 -0.248816 1.806473
O 1.163024 -1.078031 -0.775213
O 1.219510 1.326546 -0.118141
H 2.193258 1.228168 -0.643009
9
Time step 2157
C -0.968067 0.027332 -0.276476
F -0.804689 0.187707 -1.564509
F -1.540436 1.045088 0.286681
F -1.403184 -1.177723 0.110922
S 0.810375 -0.081680 0.361126
O 1.038246 -0.248539 1.805478
O 1.162362 -1.078379 -0.775275
O 1.219244 1.326945 -0.117768
H 2.201838 1.227192 -0.648127
9
Time step 2158
C -0.965945 0.026737 -0.276304
F -0.804700 0.187703 -1.563327
F -1.541124 1.044606 0.286374
F -1.402893 -1.176871 0.110581
S 0.810212 -0.081821 0.361242
O 1.037838 -0.248262 1.804475
O 1.161707 -1.078717 -0.775315
O 1.219007 1.327359 -0.117409
H 2.210083 1.226254 -0.653073
9
Time step 2159
C -0.963798 0.026136 -0.276117
F -0.804719 0.187698 -1.562149
F -1.541821 1.044129 0.286067
F -1.402608 -1.176017 0.110236
S 0.810045 -0.081976 0.361351
O 1.037430 -0.247986 1.803466
O 1.161059 -1.079047 -0.775334
O 1.218801 1.327788 -0.117065
H 2.217980 1.225353 -0.657839
9
Time step 2160
C -0.961628 0.025529 -0.275913
F -0.804746 0.187693 -1.560976
F -1.542525 1.043654 0.285762
F -1.402331 -1.175159 0.109888
S 0.809875 -0.082145 0.361452
O 1.037022 -0.247712 1.802451
O 1.160417 -1.079366 -0.775333
O 1.218625 1.328232 -0.116735
H 2.225520 1.224487 -0.662418
9
Time step 2161
C -0.959436 0.024918 -0.275690
F -0.804780 0.187686 -1.559809
F -1.543238 1.043183 0.285459
F -1.402059 -1.174299 0.109534
S 0.809702 -0.082329 0.361545
O 1.036615 -0.247438 1.801431
O 1.159783 -1.079676 -0.775309
O 1.218480 1.328691 -0.116421
H 2.232694 1.223652 -0.666804
9
Time step 2162
C -0.957222 0.024303 -0.275448
F -0.804821 0.187679 -1.558647
F -1.543959 1.042714 0.285158
F -1.401794 -1.173436 0.109177
S 0.809526 -0.082526 0.361629
O 1.036209 -0.247165 1.800406
O 1.159155 -1.079977 -0.775266
O 1.218368 1.329165 -0.116122
H 2.239498 1.222847 -0.670990
9
Time step 2163
C -0.954986 0.023684 -0.275190
F -0.804868 0.187672 -1.557490
F -1.544689 1.042249 0.284859
F -1.401535 -1.172572 0.108816
S 0.809346 -0.082736 0.361703
O 1.035803 -0.246892 1.799378
O 1.158534 -1.080267 -0.775201
O 1.218287 1.329652 -0.115839
H 2.245925 1.222073 -0.674972
9
Time step 2164
C -0.952729 0.023059 -0.274917
F -0.804922 0.187665 -1.556338
F -1.545426 1.041788 0.284561
F -1.401284 -1.171706 0.108453
S 0.809164 -0.082960 0.361768
O 1.035397 -0.246620 1.798346
O 1.157921 -1.080548 -0.775117
O 1.218237 1.330152 -0.115572
H 2.251969 1.221330 -0.678745
9
Time step 2165
C -0.950453 0.022428 -0.274629
F -0.804981 0.187659 -1.555191
F -1.546171 1.041330 0.284266
F -1.401040 -1.170839 0.108087
S 0.808980 -0.083198 0.361823
O 1.034991 -0.246347 1.797312
O 1.157315 -1.080819 -0.775013
O 1.218219 1.330664 -0.115321
H 2.257624 1.220622 -0.682307
9
Time step 2166
C -0.948158 0.021792 -0.274328
F -0.805048 0.187654 -1.554049
F -1.546924 1.040876 0.283972
F -1.400804 -1.169970 0.107719
S 0.808794 -0.083449 0.361869
O 1.034586 -0.246075 1.796275
O 1.156716 -1.081080 -0.774889
O 1.218232 1.331188 -0.115086
H 2.262886 1.219950 -0.685653
9
Time step 2167
C -0.945846 0.021151 -0.274010
F -0.805120 0.187649 -1.552913
F -1.547683 1.040424 0.283681
F -1.400576 -1.169101 0.107349
S 0.808608 -0.083714 0.361906
O 1.034180 -0.245802 1.795235
O 1.156126 -1.081330 -0.774745
O 1.218277 1.331724 -0.114868
H 2.267751 1.219315 -0.688782
9
Time step 2168
C -0.943519 0.020508 -0.273674
F -0.805199 0.187645 -1.551783
F -1.548451 1.039975 0.283390
F -1.400355 -1.168229 0.106975
S 0.808422 -0.083992 0.361933
O 1.033774 -0.245530 1.794192
O 1.155542 -1.081571 -0.774581
O 1.218355 1.332272 -0.114666
H 2.272215 1.218720 -0.691691
9
Time step 2169
C -0.941176 0.019864 -0.273316
F -0.805284 0.187640 -1.550660
F -1.549226 1.039527 0.283100
F -1.400142 -1.167356 0.106598
S 0.808236 -0.084284 0.361951
O 1.033367 -0.245259 1.793147
O 1.154965 -1.081801 -0.774397
O 1.218466 1.332832 -0.114481
H 2.276276 1.218163 -0.694380
9
Time step 2170
C -0.938819 0.019219 -0.272936
F -0.805374 0.187635 -1.549544
F -1.550010 1.039081 0.282811
F -1.399934 -1.166481 0.106218
S 0.808050 -0.084588 0.361960
O 1.032960 -0.244989 1.792099
O 1.154393 -1.082022 -0.774194
O 1.218609 1.333404 -0.114314
H 2.279931 1.217647 -0.696848
9
Time step 2171
C -0.936448 0.018574 -0.272535
F -0.805469 0.187629 -1.548433
F -1.550800 1.038638 0.282521
F -1.399734 -1.165606 0.105834
S 0.807863 -0.084905 0.361959
O 1.032552 -0.244722 1.791050
O 1.153828 -1.082232 -0.773970
O 1.218785 1.333989 -0.114163
H 2.283177 1.217172 -0.699096
9
Time step 2172
C -0.934061 0.017928 -0.272116
F -0.805569 0.187624 -1.547328
F -1.551597 1.038197 0.282232
F -1.399539 -1.164731 0.105448
S 0.807675 -0.085233 0.361947
O 1.032144 -0.244457 1.789999
O 1.153268 -1.082434 -0.773727
O 1.218993 1.334585 -0.114031
H 2.286012 1.216740 -0.701125
9
Time step 2173
C -0.931658 0.017283 -0.271681
F -0.805673 0.187619 -1.546228
F -1.552400 1.037758 0.281944
F -1.399351 -1.163857 0.105060
S 0.807486 -0.085574 0.361926
O 1.031736 -0.244194 1.788947
O 1.152714 -1.082626 -0.773464
O 1.219234 1.335194 -0.113915
H 2.288434 1.216352 -0.702934
9
Time step 2174
C -0.929241 0.016638 -0.271234
F -0.805783 0.187615 -1.545134
F -1.553208 1.037321 0.281657
F -1.399170 -1.162984 0.104671
S 0.807294 -0.085926 0.361895
O 1.031328 -0.243934 1.787895
O 1.152166 -1.082809 -0.773181
O 1.219509 1.335814 -0.113818
H 2.290441 1.216009 -0.704523
9
Time step 2175
C -0.926810 0.015997 -0.270775
F -0.805898 0.187610 -1.544045
F -1.554022 1.036885 0.281372
F -1.398996 -1.162113 0.104282
S 0.807101 -0.086290 0.361854
O 1.030920 -0.243677 1.786844
O 1.151624 -1.082983 -0.772879
O 1.219816 1.336446 -0.113737
H 2.292033 1.215708 -0.705891
9
Time step 2176
C -0.924366 0.015360 -0.270301
F -0.806017 0.187605 -1.542963
F -1.554841 1.036449 0.281089
F -1.398828 -1.161243 0.103891
S 0.806907 -0.086665 0.361801
O 1.030512 -0.243422 1.785795
O 1.151088 -1.083147 -0.772556
O 1.220156 1.337089 -0.113673
H 2.293209 1.215449 -0.707035
9
Time step 2177
C -0.921911 0.014730 -0.269811
F -0.806142 0.187599 -1.541889
F -1.555666 1.036013 0.280807
F -1.398668 -1.160374 0.103499
S 0.806713 -0.087052 0.361737
O 1.030103 -0.243169 1.784748
O 1.150558 -1.083302 -0.772213
O 1.220530 1.337744 -0.113626
H 2.293969 1.215229 -0.707954
9
Time step 2178
C -0.919445 0.014107 -0.269302
F -0.806271 0.187592 -1.540823
F -1.556496 1.035577 0.280528
F -1.398514 -1.159506 0.103106
S 0.806519 -0.087451 0.361660
O 1.029695 -0.242918 1.783702
O 1.150033 -1.083447 -0.771850
O 1.220936 1.338409 -0.113595
H 2.294314 1.215047 -0.708646
9
Time step 2179
C -0.916969 0.013491 -0.268772
F -0.806404 0.187585 -1.539765
F -1.557332 1.035142 0.280249
F -1.398368 -1.158640 0.102710
S 0.806326 -0.087863 0.361571
O 1.029286 -0.242668 1.782658
O 1.149514 -1.083581 -0.771466
O 1.221374 1.339086 -0.113580
H 2.294242 1.214902 -0.709111
9
Time step 2180
C -0.914485 0.012880 -0.268221
F -0.806541 0.187577 -1.538715
F -1.558172 1.034708 0.279970
F -1.398229 -1.157776 0.102312
S 0.806134 -0.088287 0.361468
O 1.028878 -0.242420 1.781616
O 1.149001 -1.083705 -0.771061
O 1.221842 1.339774 -0.113581
H 2.293755 1.214794 -0.709350
9
Time step 2181
C -0.911991 0.012275 -0.267650
F -0.806683 0.187569 -1.537672
F -1.559016 1.034274 0.279692
F -1.398098 -1.156914 0.101912
S 0.805943 -0.088723 0.361354
O 1.028469 -0.242174 1.780577
O 1.148494 -1.083819 -0.770634
O 1.222341 1.340472 -0.113598
H 2.292851 1.214723 -0.709364
9
Time step 2182
C -0.909490 0.011676 -0.267062
F -0.806831 0.187561 -1.536637
F -1.559863 1.033843 0.279414
F -1.397974 -1.156056 0.101509
S 0.805753 -0.089170 0.361228
O 1.028061 -0.241931 1.779539
O 1.147994 -1.083925 -0.770187
O 1.222870 1.341181 -0.113632
H 2.291531 1.214689 -0.709155
9
Time step 2183
C -0.906983 0.011084 -0.266457
F -0.806985 0.187554 -1.535610
F -1.560713 1.033412 0.279137
F -1.397857 -1.155201 0.101104
S 0.805563 -0.089627 0.361090
O 1.027653 -0.241690 1.778505
O 1.147501 -1.084022 -0.769719
O 1.223431 1.341900 -0.113682
H 2.289796 1.214692 -0.708722
9
Time step 2184
C -0.904471 0.010499 -0.265835
F -0.807144 0.187546 -1.534591
F -1.561565 1.032981 0.278862
F -1.397746 -1.154349 0.100698
S 0.805373 -0.090093 0.360941
O 1.027246 -0.241453 1.777474
O 1.147016 -1.084111 -0.769231
O 1.224024 1.342629 -0.113749
H 2.287645 1.214735 -0.708067
9
Time step 2185
C -0.901956 0.009923 -0.265194
F -0.807308 0.187539 -1.533583
F -1.562420 1.032551 0.278587
F -1.397640 -1.153500 0.100289
S 0.805182 -0.090568 0.360781
O 1.026841 -0.241220 1.776447
O 1.146538 -1.084193 -0.768723
O 1.224649 1.343366 -0.113833
H 2.285079 1.214817 -0.707188
9
Time step 2186
C -0.899438 0.009354 -0.264532
F -0.807477 0.187531 -1.532584
F -1.563278 1.032120 0.278314
F -1.397541 -1.152653 0.099878
S 0.804991 -0.091051 0.360609
O 1.026436 -0.240990 1.775425
O 1.146068 -1.084269 -0.768197
O 1.225306 1.344112 -0.113933
H 2.282100 1.214943 -0.706085
9
Time step 2187
C -0.896916 0.008790 -0.263850
F -0.807650 0.187524 -1.531597
F -1.564140 1.031688 0.278043
F -1.397447 -1.151806 0.099466
S 0.804799 -0.091543 0.360426
O 1.026033 -0.240764 1.774407
O 1.145606 -1.084338 -0.767652
O 1.225994 1.344866 -0.114050
H 2.278706 1.215114 -0.704756
9
Time step 2188
C -0.894391 0.008230 -0.263148
F -0.807827 0.187517 -1.530620
F -1.565006 1.031257 0.277773
F -1.397361 -1.150961 0.099052
S 0.804608 -0.092044 0.360232
O 1.025631 -0.240541 1.773393
O 1.145152 -1.084400 -0.767089
O 1.226714 1.345627 -0.114183
H 2.274900 1.215334 -0.703202
9
Time step 2189
C -0.891863 0.007675 -0.262426
F -0.808008 0.187512 -1.529654
F -1.565876 1.030826 0.277505
F -1.397281 -1.150117 0.098637
S 0.804417 -0.092553 0.360025
O 1.025229 -0.240321 1.772383
O 1.144706 -1.084455 -0.766507
O 1.227466 1.346396 -0.114332
H 2.270682 1.215603 -0.701423
9
Time step 2190
C -0.889334 0.007124 -0.261686
F -0.808194 0.187507 -1.528700
F -1.566749 1.030395 0.277239
F -1.397208 -1.149275 0.098221
S 0.804227 -0.093072 0.359806
O 1.024829 -0.240102 1.771378
O 1.144269 -1.084502 -0.765906
O 1.228249 1.347172 -0.114496
H 2.266057 1.215924 -0.699421
9
Time step 2191
C -0.886809 0.006579 -0.260929
F -0.808383 0.187503 -1.527755
F -1.567625 1.029965 0.276975
F -1.397141 -1.148436 0.097805
S 0.804037 -0.093601 0.359576
O 1.024429 -0.239886 1.770377
O 1.143840 -1.084540 -0.765286
O 1.229065 1.347955 -0.114676
H 2.261026 1.216295 -0.697195
9
Time step 2192
C -0.884290 0.006043 -0.260155
F -0.808576 0.187499 -1.526822
F -1.568503 1.029536 0.276713
F -1.397079 -1.147600 0.097389
S 0.803849 -0.094139 0.359333
O 1.024030 -0.239671 1.769381
O 1.143418 -1.084570 -0.764647
O 1.229912 1.348744 -0.114872
H 2.255593 1.216716 -0.694749
9
Time step 2193
C -0.881780 0.005517 -0.259363
F -0.808771 0.187496 -1.525898
F -1.569384 1.029106 0.276452
F -1.397021 -1.146769 0.096972
S 0.803662 -0.094688 0.359077
O 1.023631 -0.239458 1.768392
O 1.143004 -1.084590 -0.763988
O 1.230793 1.349540 -0.115083
H 2.249765 1.217187 -0.692084
9
Time step 2194
C -0.879280 0.005003 -0.258551
F -0.808969 0.187493 -1.524986
F -1.570266 1.028676 0.276191
F -1.396968 -1.145942 0.096555
S 0.803476 -0.095246 0.358808
O 1.023234 -0.239248 1.767408
O 1.142598 -1.084602 -0.763311
O 1.231705 1.350343 -0.115310
H 2.243544 1.217708 -0.689203
9
Time step 2195
C -0.876789 0.004501 -0.257719
F -0.809168 0.187491 -1.524083
F -1.571150 1.028245 0.275931
F -1.396919 -1.145121 0.096138
S 0.803291 -0.095815 0.358526
O 1.022836 -0.239039 1.766432
O 1.142198 -1.084604 -0.762616
O 1.232647 1.351152 -0.115552
H 2.236938 1.218279 -0.686109
9
Time step 2196
C -0.874306 0.004010 -0.256868
F -0.809369 0.187490 -1.523189
F -1.572035 1.027813 0.275671
F -1.396878 -1.144304 0.095720
S 0.803108 -0.096393 0.358230
O 1.022440 -0.238833 1.765463
O 1.141806 -1.084597 -0.761902
O 1.233620 1.351967 -0.115809
H 2.229952 1.218901 -0.682805
9
Time step 2197
C -0.871829 0.003531 -0.255998
F -0.809574 0.187490 -1.522305
F -1.572920 1.027379 0.275412
F -1.396844 -1.143492 0.095303
S 0.802927 -0.096981 0.357920
O 1.022044 -0.238628 1.764502
O 1.141422 -1.084581 -0.761169
O 1.234621 1.352789 -0.116080
H 2.222594 1.219576 -0.679296
9
Time step 2198
C -0.869357 0.003064 -0.255114
F -0.809781 0.187491 -1.521430
F -1.573806 1.026943 0.275153
F -1.396817 -1.142685 0.094887
S 0.802747 -0.097578 0.357596
O 1.021649 -0.238425 1.763549
O 1.141045 -1.084557 -0.760419
O 1.235650 1.353617 -0.116365
H 2.214874 1.220306 -0.675589
9
Time step 2199
C -0.866891 0.002610 -0.254216
F -0.809992 0.187493 -1.520565
F -1.574691 1.026505 0.274895
F -1.396797 -1.141881 0.094471
S 0.802570 -0.098184 0.357259
O 1.021255 -0.238223 1.762604
O 1.140676 -1.084525 -0.759650
O 1.236706 1.354450 -0.116662
H 2.206803 1.221090 -0.671688
9
Time step 2200
C -0.864434 0.002169 -0.253305
F -0.810206 0.187494 -1.519709
F -1.575577 1.026067 0.274639
F -1.396784 -1.141083 0.094056
S 0.802395 -0.098798 0.356909
O 1.020861 -0.238024 1.761668
O 1.140314 -1.084485 -0.758864
O 1.237788 1.355288 -0.116972
H 2.198392 1.221929 -0.667603
9
Time step 2201
C -0.861987 0.001744 -0.252379
F -0.810423 0.187495 -1.518864
F -1.576462 1.025627 0.274384
F -1.396776 -1.140291 0.093642
S 0.802222 -0.099420 0.356544
O 1.020468 -0.237827 1.760741
O 1.139959 -1.084437 -0.758059
O 1.238896 1.356131 -0.117293
H 2.189658 1.222820 -0.663340
9
Time step 2202
C -0.859553 0.001333 -0.251437
F -0.810641 0.187496 -1.518031
F -1.577348 1.025187 0.274132
F -1.396773 -1.139505 0.093227
S 0.802052 -0.100049 0.356167
O 1.020076 -0.237634 1.759824
O 1.139611 -1.084383 -0.757238
O 1.240027 1.356978 -0.117626
H 2.180615 1.223761 -0.658911
9
Time step 2203
C -0.857131 0.000937 -0.250476
F -0.810862 0.187497 -1.517210
F -1.578233 1.024747 0.273881
F -1.396777 -1.138727 0.092812
S 0.801886 -0.100685 0.355775
O 1.019684 -0.237443 1.758915
O 1.139271 -1.084323 -0.756399
O 1.241180 1.357827 -0.117970
H 2.171282 1.224749 -0.654326
9
Time step 2204
C -0.854718 0.000556 -0.249496
F -0.811085 0.187499 -1.516400
F -1.579119 1.024307 0.273632
F -1.396787 -1.137955 0.092397
S 0.801723 -0.101325 0.355371
O 1.019293 -0.237257 1.758017
O 1.138938 -1.084256 -0.755543
O 1.242354 1.358680 -0.118324
H 2.161678 1.225780 -0.649596
9
Time step 2205
C -0.852316 0.000190 -0.248497
F -0.811310 0.187501 -1.515603
F -1.580006 1.023866 0.273384
F -1.396805 -1.137191 0.091982
S 0.801565 -0.101969 0.354955
O 1.018902 -0.237075 1.757127
O 1.138613 -1.084185 -0.754671
O 1.243546 1.359535 -0.118689
H 2.151828 1.226849 -0.644737
9
Time step 2206
C -0.849923 -0.000162 -0.247481
F -0.811538 0.187505 -1.514818
F -1.580892 1.023424 0.273138
F -1.396830 -1.136433 0.091566
S 0.801410 -0.102618 0.354526
O 1.018511 -0.236897 1.756247
O 1.138298 -1.084108 -0.753783
O 1.244756 1.360392 -0.119063
H 2.141758 1.227953 -0.639762
9
Time step 2207
C -0.847543 -0.000498 -0.246452
F -0.811769 0.187510 -1.514044
F -1.581778 1.022980 0.272894
F -1.396862 -1.135680 0.091152
S 0.801258 -0.103271 0.354087
O 1.018121 -0.236724 1.755375
O 1.137990 -1.084026 -0.752879
O 1.245981 1.361252 -0.119445
H 2.131497 1.229090 -0.634689
9
Time step 2208
C -0.845179 -0.000819 -0.245412
F -0.812002 0.187515 -1.513282
F -1.582663 1.022533 0.272653
F -1.396898 -1.134933 0.090739
S 0.801109 -0.103929 0.353636
O 1.017731 -0.236554 1.754513
O 1.137691 -1.083940 -0.751960
O 1.247220 1.362114 -0.119835
H 2.121079 1.230259 -0.629536
9
Time step 2209
C -0.842834 -0.001125 -0.244360
F -0.812236 0.187521 -1.512531
F -1.583546 1.022084 0.272414
F -1.396939 -1.134191 0.090327
S 0.800964 -0.104590 0.353175
O 1.017342 -0.236389 1.753660
O 1.137401 -1.083851 -0.751026
O 1.248471 1.362980 -0.120230
H 2.110539 1.231461 -0.624323
9
Time step 2210
C -0.840511 -0.001415 -0.243297
F -0.812473 0.187527 -1.511790
F -1.584427 1.021633 0.272178
F -1.396984 -1.133454 0.089916
S 0.800822 -0.105256 0.352702
O 1.016953 -0.236228 1.752816
O 1.137119 -1.083758 -0.750078
O 1.249731 1.363850 -0.120629
H 2.099916 1.232697 -0.619072
9
Time step 2211
C -0.838211 -0.001691 -0.242219
F -0.812710 0.187533 -1.511061
F -1.585305 1.021180 0.271943
F -1.397034 -1.132721 0.089504
S 0.800685 -0.105927 0.352219
O 1.016566 -0.236069 1.751981
O 1.136847 -1.083661 -0.749115
O 1.250997 1.364724 -0.121029
H 2.089251 1.233967 -0.613807
9
Time step 2212
C -0.835935 -0.001953 -0.241126
F -0.812949 0.187538 -1.510344
F -1.586181 1.020727 0.271710
F -1.397088 -1.131993 0.089093
S 0.800551 -0.106604 0.351723
O 1.016181 -0.235914 1.751156
O 1.136583 -1.083560 -0.748138
O 1.252268 1.365602 -0.121429
H 2.078589 1.235267 -0.608554
9
Time step 2213
C -0.833683 -0.002199 -0.240018
F -0.813189 0.187542 -1.509637
F -1.587055 1.020274 0.271478
F -1.397148 -1.131272 0.088681
S 0.800421 -0.107286 0.351216
O 1.015796 -0.235763 1.750341
O 1.136328 -1.083454 -0.747146
O 1.253539 1.366484 -0.121827
H 2.067977 1.236592 -0.603343
9
Time step 2214
C -0.831455 -0.002430 -0.238894
F -0.813430 0.187546 -1.508943
F -1.587927 1.019821 0.271248
F -1.397213 -1.130556 0.088269
S 0.800295 -0.107973 0.350698
O 1.015414 -0.235614 1.749535
O 1.136083 -1.083344 -0.746140
O 1.254808 1.367370 -0.122221
H 2.057468 1.237935 -0.598205
9
Time step 2215
C -0.829255 -0.002643 -0.237759
F -0.813673 0.187551 -1.508260
F -1.588797 1.019366 0.271020
F -1.397283 -1.129849 0.087859
S 0.800173 -0.108665 0.350169
O 1.015034 -0.235468 1.748741
O 1.135847 -1.083228 -0.745119
O 1.256074 1.368261 -0.122610
H 2.047117 1.239285 -0.593175
9
Time step 2216
C -0.827083 -0.002840 -0.236612
F -0.813915 0.187557 -1.507589
F -1.589665 1.018910 0.270793
F -1.397356 -1.129148 0.087451
S 0.800055 -0.109362 0.349628
O 1.014655 -0.235326 1.747957
O 1.135621 -1.083106 -0.744085
O 1.257331 1.369156 -0.122991
H 2.036984 1.240631 -0.588292
9
Time step 2217
C -0.824942 -0.003019 -0.235457
F -0.814159 0.187565 -1.506929
F -1.590529 1.018452 0.270567
F -1.397434 -1.128456 0.087046
S 0.799941 -0.110064 0.349077
O 1.014278 -0.235187 1.747185
O 1.135403 -1.082980 -0.743036
O 1.258576 1.370056 -0.123363
H 2.027135 1.241962 -0.583599
9
Time step 2218
C -0.822832 -0.003182 -0.234294
F -0.814403 0.187575 -1.506280
F -1.591390 1.017992 0.270344
F -1.397515 -1.127770 0.086643
S 0.799830 -0.110769 0.348515
O 1.013903 -0.235052 1.746424
O 1.135195 -1.082849 -0.741973
O 1.259805 1.370960 -0.123722
H 2.017640 1.243267 -0.579139
9
Time step 2219
C -0.820753 -0.003328 -0.233122
F -0.814648 0.187587 -1.505641
F -1.592248 1.017528 0.270122
F -1.397601 -1.127092 0.086242
S 0.799725 -0.111477 0.347941
O 1.013528 -0.234921 1.745676
O 1.134996 -1.082714 -0.740897
O 1.261013 1.371870 -0.124065
H 2.008570 1.244538 -0.574961
9
Time step 2220
C -0.818704 -0.003457 -0.231942
F -0.814894 0.187600 -1.505011
F -1.593101 1.017062 0.269901
F -1.397692 -1.126420 0.085842
S 0.799624 -0.112188 0.347357
O 1.013154 -0.234793 1.744940
O 1.134807 -1.082575 -0.739807
O 1.262194 1.372786 -0.124389
H 2.000002 1.245764 -0.571114
9
Time step 2221
C -0.816685 -0.003569 -0.230753
F -0.815140 0.187613 -1.504391
F -1.593950 1.016592 0.269683
F -1.397788 -1.125755 0.085443
S 0.799528 -0.112902 0.346761
O 1.012781 -0.234669 1.744216
O 1.134627 -1.082434 -0.738705
O 1.263344 1.373708 -0.124690
H 1.992011 1.246936 -0.567645
9
Time step 2222
C -0.814698 -0.003662 -0.229558
F -0.815387 0.187627 -1.503780
F -1.594795 1.016120 0.269466
F -1.397889 -1.125097 0.085046
S 0.799437 -0.113618 0.346155
O 1.012409 -0.234546 1.743504
O 1.134455 -1.082290 -0.737591
O 1.264457 1.374636 -0.124965
H 1.984673 1.248045 -0.564602
9
Time step 2223
C -0.812743 -0.003734 -0.228356
F -0.815635 0.187641 -1.503178
F -1.595637 1.015645 0.269251
F -1.397994 -1.124447 0.084650
S 0.799352 -0.114336 0.345539
O 1.012037 -0.234427 1.742802
O 1.134293 -1.082144 -0.736465
O 1.265530 1.375571 -0.125211
H 1.978058 1.249078 -0.562029
9
Time step 2224
C -0.810823 -0.003784 -0.227150
F -0.815881 0.187656 -1.502587
F -1.596474 1.015167 0.269039
F -1.398103 -1.123807 0.084257
S 0.799271 -0.115056 0.344913
O 1.011667 -0.234310 1.742112
O 1.134139 -1.081995 -0.735329
O 1.266559 1.376512 -0.125426
H 1.972232 1.250026 -0.559966
9
Time step 2225
C -0.808938 -0.003812 -0.225939
F -0.816127 0.187673 -1.502007
F -1.597308 1.014687 0.268830
F -1.398217 -1.123177 0.083867
S 0.799196 -0.115778 0.344279
O 1.011298 -0.234195 1.741432
O 1.133994 -1.081846 -0.734182
O 1.267540 1.377461 -0.125607
H 1.967253 1.250875 -0.558449
9
Time step 2226
C -0.807088 -0.003819 -0.224723
F -0.816372 0.187690 -1.501439
F -1.598139 1.014204 0.268624
F -1.398336 -1.122556 0.083480
S 0.799128 -0.116502 0.343637
O 1.010931 -0.234083 1.740763
O 1.133859 -1.081695 -0.733024
O 1.268469 1.378419 -0.125753
H 1.963171 1.251615 -0.557508
9
Time step 2227
C -0.805274 -0.003806 -0.223502
F -0.816617 0.187708 -1.500883
F -1.598967 1.013720 0.268422
F -1.398460 -1.121945 0.083095
S 0.799065 -0.117227 0.342986
O 1.010565 -0.233974 1.740105
O 1.133732 -1.081544 -0.731856
O 1.269344 1.379385 -0.125863
H 1.960030 1.252236 -0.557171
9
Time step 2228
C -0.803495 -0.003773 -0.222275
F -0.816862 0.187727 -1.500340
F -1.599791 1.013235 0.268224
F -1.398590 -1.121342 0.082711
S 0.799010 -0.117952 0.342328
O 1.010200 -0.233869 1.739458
O 1.133616 -1.081391 -0.730678
O 1.270162 1.380360 -0.125935
H 1.957862 1.252727 -0.557457
9
Time step 2229
C -0.801753 -0.003723 -0.221044
F -0.817108 0.187746 -1.499808
F -1.600611 1.012748 0.268031
F -1.398724 -1.120747 0.082329
S 0.798961 -0.118677 0.341661
O 1.009836 -0.233768 1.738822
O 1.133509 -1.081239 -0.729489
O 1.270921 1.381345 -0.125968
H 1.956689 1.253082 -0.558382
9
Time step 2230
C -0.800049 -0.003655 -0.219810
F -0.817353 0.187765 -1.499287
F -1.601428 1.012260 0.267842
F -1.398862 -1.120159 0.081948
S 0.798921 -0.119402 0.340986
O 1.009472 -0.233671 1.738198
O 1.133412 -1.081087 -0.728290
O 1.271622 1.382339 -0.125961
H 1.956522 1.253298 -0.559957
9
Time step 2231
C -0.798385 -0.003570 -0.218575
F -0.817599 0.187784 -1.498776
F -1.602241 1.011770 0.267656
F -1.399003 -1.119577 0.081570
S 0.798887 -0.120127 0.340303
O 1.009108 -0.233578 1.737585
O 1.133326 -1.080935 -0.727083
O 1.272264 1.383343 -0.125914
H 1.957358 1.253373 -0.562184
9
Time step 2232
C -0.796762 -0.003468 -0.217339
F -0.817846 0.187804 -1.498275
F -1.603049 1.011278 0.267473
F -1.399147 -1.119004 0.081195
S 0.798860 -0.120851 0.339611
O 1.008745 -0.233488 1.736984
O 1.133250 -1.080784 -0.725867
O 1.272849 1.384355 -0.125825
H 1.959180 1.253310 -0.565057
9
Time step 2233
C -0.795182 -0.003348 -0.216103
F -0.818093 0.187826 -1.497783
F -1.603854 1.010785 0.267293
F -1.399295 -1.118439 0.080824
S 0.798841 -0.121574 0.338912
O 1.008381 -0.233402 1.736394
O 1.133185 -1.080636 -0.724644
O 1.273379 1.385377 -0.125696
H 1.961957 1.253116 -0.568561
9
Time step 2234
C -0.793645 -0.003211 -0.214864
F -0.818341 0.187850 -1.497302
F -1.604653 1.010290 0.267114
F -1.399447 -1.117882 0.080456
S 0.798829 -0.122296 0.338205
O 1.008018 -0.233318 1.735816
O 1.133132 -1.080489 -0.723414
O 1.273857 1.386406 -0.125529
H 1.965646 1.252801 -0.572672
9
Time step 2235
C -0.792154 -0.003054 -0.213621
F -0.818588 0.187876 -1.496831
F -1.605447 1.009794 0.266938
F -1.399603 -1.117335 0.080092
S 0.798824 -0.123017 0.337491
O 1.007656 -0.233238 1.735250
O 1.133092 -1.080346 -0.722177
O 1.274286 1.387443 -0.125326
H 1.970195 1.252372 -0.577360
9
Time step 2236
C -0.790710 -0.002878 -0.212371
F -0.818833 0.187902 -1.496371
F -1.606235 1.009296 0.266765
F -1.399762 -1.116797 0.079730
S 0.798827 -0.123736 0.336768
O 1.007294 -0.233162 1.734695
O 1.133065 -1.080206 -0.720935
O 1.274668 1.388485 -0.125089
H 1.975543 1.251842 -0.582588
9
Time step 2237
C -0.789315 -0.002680 -0.211114
F -0.819077 0.187929 -1.495923
F -1.607017 1.008796 0.266595
F -1.399925 -1.116267 0.079370
S 0.798837 -0.124453 0.336039
O 1.006932 -0.233089 1.734153
O 1.133050 -1.080069 -0.719688
O 1.275007 1.389533 -0.124822
H 1.981627 1.251219 -0.588316
9
Time step 2238
C -0.787970 -0.002460 -0.209852
F -0.819319 0.187954 -1.495485
F -1.607794 1.008296 0.266428
F -1.400090 -1.115746 0.079012
S 0.798854 -0.125168 0.335304
O 1.006570 -0.233021 1.733623
O 1.133048 -1.079935 -0.718436
O 1.275308 1.390583 -0.124527
H 1.988380 1.250513 -0.594502
9
Time step 2239
C -0.786674 -0.002219 -0.208586
F -0.819559 0.187980 -1.495057
F -1.608565 1.007794 0.266265
F -1.400259 -1.115233 0.078656
S 0.798880 -0.125878 0.334562
O 1.006208 -0.232958 1.733105
O 1.133058 -1.079805 -0.717180
O 1.275573 1.391637 -0.124207
H 1.995734 1.249733 -0.601106
9
Time step 2240
C -0.785427 -0.001957 -0.207320
F -0.819797 0.188005 -1.494640
F -1.609329 1.007291 0.266106
F -1.400431 -1.114729 0.078301
S 0.798914 -0.126585 0.333816
O 1.005848 -0.232900 1.732598
O 1.133080 -1.079680 -0.715920
O 1.275807 1.392691 -0.123866
H 2.003618 1.248892 -0.608084
9
Time step 2241
C -0.784227 -0.001674 -0.206057
F -0.820034 0.188031 -1.494231
F -1.610088 1.006785 0.265950
F -1.400608 -1.114234 0.077950
S 0.798956 -0.127288 0.333066
O 1.005488 -0.232847 1.732103
O 1.133114 -1.079558 -0.714657
O 1.276015 1.393746 -0.123505
H 2.011965 1.247999 -0.615393
9
Time step 2242
C -0.783073 -0.001370 -0.204798
F -0.820270 0.188057 -1.493830
F -1.610841 1.006277 0.265798
F -1.400790 -1.113747 0.077601
S 0.799007 -0.127986 0.332314
O 1.005130 -0.232797 1.731620
O 1.133160 -1.079442 -0.713392
O 1.276199 1.394800 -0.123129
H 2.020702 1.247069 -0.622989
9
Time step 2243
C -0.781968 -0.001044 -0.203544
F -0.820505 0.188085 -1.493437
F -1.611587 1.005766 0.265648
F -1.400976 -1.113269 0.077254
S 0.799067 -0.128679 0.331560
O 1.004773 -0.232752 1.731147
O 1.133218 -1.079331 -0.712126
O 1.276365 1.395852 -0.122739
H 2.029763 1.246114 -0.630824
9
Time step 2244
C -0.780912 -0.000694 -0.202298
F -0.820739 0.188113 -1.493051
F -1.612327 1.005253 0.265502
F -1.401166 -1.112801 0.076911
S 0.799135 -0.129369 0.330805
O 1.004418 -0.232711 1.730685
O 1.133289 -1.079226 -0.710860
O 1.276515 1.396902 -0.122339
H 2.039079 1.245147 -0.638851
9
Time step 2245
C -0.779907 -0.000319 -0.201060
F -0.820972 0.188141 -1.492672
F -1.613059 1.004738 0.265359
F -1.401358 -1.112341 0.076570
S 0.799211 -0.130055 0.330048
O 1.004063 -0.232672 1.730235
O 1.133372 -1.079127 -0.709593
O 1.276655 1.397949 -0.121931
H 2.048589 1.244179 -0.647024
9
Time step 2246
C -0.778954 0.000079 -0.199829
F -0.821203 0.188169 -1.492301
F -1.613785 1.004221 0.265220
F -1.401551 -1.111891 0.076232
S 0.799296 -0.130737 0.329289
O 1.003711 -0.232637 1.729794
O 1.133467 -1.079035 -0.708326
O 1.276788 1.398992 -0.121518
H 2.058233 1.243221 -0.655298
9
Time step 2247
C -0.778056 0.000500 -0.198606
F -0.821432 0.188199 -1.491938
F -1.614504 1.003702 0.265084
F -1.401748 -1.111450 0.075898
S 0.799390 -0.131416 0.328528
O 1.003359 -0.232604 1.729364
O 1.133573 -1.078949 -0.707059
O 1.276918 1.400032 -0.121101
H 2.067957 1.242279 -0.663636
9
Time step 2248
C -0.777212 0.000939 -0.197391
F -0.821659 0.188231 -1.491582
F -1.615217 1.003182 0.264951
F -1.401947 -1.111018 0.075568
S 0.799493 -0.132092 0.327765
O 1.003009 -0.232575 1.728945
O 1.133692 -1.078869 -0.705790
O 1.277048 1.401067 -0.120682
H 2.077712 1.241361 -0.672004
9
Time step 2249
C -0.776422 0.001396 -0.196184
F -0.821884 0.188266 -1.491235
F -1.615924 1.002660 0.264822
F -1.402151 -1.110596 0.075243
S 0.799607 -0.132762 0.327001
O 1.002661 -0.232548 1.728536
O 1.133824 -1.078796 -0.704521
O 1.277181 1.402098 -0.120264
H 2.087454 1.240471 -0.680375
9
Time step 2250
C -0.775688 0.001869 -0.194985
F -0.822106 0.188304 -1.490898
F -1.616625 1.002138 0.264697
F -1.402359 -1.110183 0.074923
S 0.799731 -0.133428 0.326234
O 1.002314 -0.232525 1.728137
O 1.133967 -1.078730 -0.703252
O 1.277319 1.403123 -0.119847
H 2.097143 1.239614 -0.688723
9
Time step 2251
C -0.775009 0.002358 -0.193795
F -0.822324 0.188343 -1.490570
F -1.617320 1.001615 0.264576
F -1.402573 -1.109780 0.074607
S 0.799865 -0.134087 0.325465
O 1.001968 -0.232505 1.727750
O 1.134122 -1.078671 -0.701983
O 1.277465 1.404143 -0.119433
H 2.106743 1.238798 -0.697027
9
Time step 2252
C -0.774387 0.002863 -0.192613
F -0.822540 0.188384 -1.490252
F -1.618009 1.001091 0.264461
F -1.402789 -1.109386 0.074296
S 0.800009 -0.134740 0.324695
O 1.001624 -0.232489 1.727373
O 1.134290 -1.078620 -0.700714
O 1.277620 1.405156 -0.119024
H 2.116222 1.238027 -0.705266
9
Time step 2253
C -0.773821 0.003387 -0.191441
F -0.822752 0.188426 -1.489943
F -1.618692 1.000567 0.264351
F -1.403008 -1.109001 0.073989
S 0.800163 -0.135385 0.323923
O 1.001281 -0.232478 1.727007
O 1.134471 -1.078578 -0.699447
O 1.277787 1.406161 -0.118619
H 2.125546 1.237308 -0.713417
9
Time step 2254
C -0.773310 0.003928 -0.190277
F -0.822963 0.188467 -1.489644
F -1.619369 1.000043 0.264246
F -1.403230 -1.108623 0.073685
S 0.800327 -0.136023 0.323150
O 1.000938 -0.232470 1.726651
O 1.134664 -1.078546 -0.698182
O 1.277966 1.407157 -0.118221
H 2.134689 1.236648 -0.721460
9
Time step 2255
C -0.772851 0.004486 -0.189121
F -0.823174 0.188509 -1.489353
F -1.620040 0.999519 0.264146
F -1.403452 -1.108254 0.073385
S 0.800501 -0.136652 0.322377
O 1.000594 -0.232467 1.726306
O 1.134871 -1.078525 -0.696920
O 1.278160 1.408144 -0.117829
H 2.143622 1.236053 -0.729375
9
Time step 2256
C -0.772445 0.005062 -0.187971
F -0.823383 0.188552 -1.489071
F -1.620704 0.998995 0.264050
F -1.403677 -1.107894 0.073089
S 0.800685 -0.137273 0.321602
O 1.000250 -0.232468 1.725970
O 1.135091 -1.078515 -0.695662
O 1.278370 1.409121 -0.117445
H 2.152320 1.235528 -0.737143
9
Time step 2257
C -0.772091 0.005654 -0.186828
F -0.823592 0.188596 -1.488797
F -1.621363 0.998470 0.263956
F -1.403905 -1.107541 0.072796
S 0.800879 -0.137885 0.320827
O 0.999905 -0.232473 1.725645
O 1.135325 -1.078519 -0.694408
O 1.278597 1.410089 -0.117071
H 2.160760 1.235076 -0.744744
9
Time step 2258
C -0.771793 0.006265 -0.185692
F -0.823800 0.188642 -1.488531
F -1.622014 0.997944 0.263867
F -1.404136 -1.107198 0.072508
S 0.801084 -0.138487 0.320051
O 0.999560 -0.232482 1.725330
O 1.135573 -1.078536 -0.693159
O 1.278842 1.411046 -0.116706
H 2.168921 1.234702 -0.752163
9
Time step 2259
C -0.771550 0.006894 -0.184562
F -0.824006 0.188688 -1.488273
F -1.622659 0.997417 0.263781
F -1.404369 -1.106863 0.072223
S 0.801298 -0.139080 0.319275
O 0.999214 -0.232494 1.725025
O 1.135836 -1.078567 -0.691915
O 1.279106 1.411993 -0.116352
H 2.176785 1.234405 -0.759384
9
Time step 2260
C -0.771365 0.007546 -0.183441
F -0.824210 0.188735 -1.488024
F -1.623297 0.996889 0.263701
F -1.404606 -1.106538 0.071941
S 0.801523 -0.139662 0.318500
O 0.998868 -0.232510 1.724731
O 1.136113 -1.078613 -0.690678
O 1.279391 1.412930 -0.116012
H 2.184338 1.234188 -0.766393
9
Time step 2261
C -0.771235 0.008220 -0.182330
F -0.824411 0.188782 -1.487784
F -1.623929 0.996360 0.263628
F -1.404846 -1.106222 0.071663
S 0.801758 -0.140235 0.317726
O 0.998523 -0.232531 1.724446
O 1.136405 -1.078673 -0.689447
O 1.279697 1.413856 -0.115684
H 2.191564 1.234049 -0.773180
9
Time step 2262
C -0.771162 0.008917 -0.181231
F -0.824611 0.188827 -1.487553
F -1.624555 0.995831 0.263561
F -1.405089 -1.105915 0.071388
S 0.802003 -0.140797 0.316956
O 0.998179 -0.232556 1.724170
O 1.136712 -1.078748 -0.688223
O 1.280024 1.414771 -0.115372
H 2.198453 1.233989 -0.779737
9
Time step 2263
C -0.771144 0.009637 -0.180145
F -0.824808 0.188873 -1.487330
F -1.625175 0.995302 0.263500
F -1.405336 -1.105619 0.071116
S 0.802258 -0.141349 0.316190
O 0.997835 -0.232585 1.723902
O 1.137036 -1.078838 -0.687008
O 1.280373 1.415674 -0.115075
H 2.204995 1.234007 -0.786056
9
Time step 2264
C -0.771186 0.010378 -0.179074
F -0.825004 0.188919 -1.487113
F -1.625788 0.994774 0.263444
F -1.405585 -1.105334 0.070848
S 0.802522 -0.141891 0.315429
O 0.997493 -0.232618 1.723643
O 1.137376 -1.078943 -0.685802
O 1.280745 1.416566 -0.114793
H 2.211179 1.234102 -0.792133
9
Time step 2265
C -0.771288 0.011139 -0.178018
F -0.825195 0.188966 -1.486902
F -1.626395 0.994247 0.263392
F -1.405838 -1.105060 0.070584
S 0.802797 -0.142421 0.314674
O 0.997152 -0.232655 1.723392
O 1.137733 -1.079063 -0.684607
O 1.281139 1.417446 -0.114528
H 2.217000 1.234274 -0.797963
9
Time step 2266
C -0.771454 0.011918 -0.176977
F -0.825383 0.189016 -1.486696
F -1.626993 0.993721 0.263344
F -1.406093 -1.104797 0.070325
S 0.803081 -0.142939 0.313924
O 0.996812 -0.232697 1.723149
O 1.138105 -1.079201 -0.683424
O 1.281557 1.418314 -0.114279
H 2.222451 1.234523 -0.803543
9
Time step 2267
C -0.771685 0.012716 -0.175951
F -0.825567 0.189068 -1.486495
F -1.627584 0.993195 0.263300
F -1.406350 -1.104544 0.070070
S 0.803375 -0.143446 0.313180
O 0.996473 -0.232742 1.722914
O 1.138494 -1.079356 -0.682253
O 1.281997 1.419171 -0.114047
H 2.227527 1.234851 -0.808867
9
Time step 2268
C -0.771979 0.013531 -0.174939
F -0.825747 0.189121 -1.486300
F -1.628166 0.992668 0.263260
F -1.406608 -1.104301 0.069820
S 0.803678 -0.143940 0.312443
O 0.996135 -0.232790 1.722688
O 1.138898 -1.079530 -0.681096
O 1.282461 1.420017 -0.113831
H 2.232226 1.235258 -0.813929
9
Time step 2269
C -0.772331 0.014364 -0.173940
F -0.825924 0.189176 -1.486111
F -1.628741 0.992141 0.263225
F -1.406869 -1.104067 0.069574
S 0.803991 -0.144422 0.311712
O 0.995796 -0.232841 1.722469
O 1.139317 -1.079722 -0.679952
O 1.282949 1.420852 -0.113632
H 2.236543 1.235745 -0.818722
9
Time step 2270
C -0.772738 0.015213 -0.172955
F -0.826099 0.189231 -1.485930
F -1.629310 0.991615 0.263195
F -1.407133 -1.103841 0.069331
S 0.804315 -0.144893 0.310987
O 0.995458 -0.232896 1.722258
O 1.139752 -1.079932 -0.678821
O 1.283461 1.421675 -0.113450
H 2.240478 1.236314 -0.823242
9
Time step 2271
C -0.773198 0.016078 -0.171983
F -0.826273 0.189288 -1.485756
F -1.629873 0.991088 0.263171
F -1.407400 -1.103623 0.069092
S 0.804648 -0.145352 0.310268
O 0.995120 -0.232954 1.722056
O 1.140202 -1.080158 -0.677702
O 1.283997 1.422486 -0.113286
H 2.244029 1.236963 -0.827484
9
Time step 2272
C -0.773712 0.016958 -0.171027
F -0.826444 0.189345 -1.485589
F -1.630431 0.990564 0.263153
F -1.407671 -1.103414 0.068859
S 0.804992 -0.145799 0.309555
O 0.994781 -0.233014 1.721862
O 1.140669 -1.080401 -0.676597
O 1.284556 1.423284 -0.113138
H 2.247193 1.237692 -0.831444
9
Time step 2273
C -0.774284 0.017853 -0.170086
F -0.826612 0.189404 -1.485430
F -1.630982 0.990042 0.263140
F -1.407946 -1.103216 0.068630
S 0.805346 -0.146236 0.308848
O 0.994443 -0.233078 1.721677
O 1.141152 -1.080659 -0.675503
O 1.285139 1.424070 -0.113009
H 2.249970 1.238501 -0.835122
9
Time step 2274
C -0.774915 0.018765 -0.169162
F -0.826776 0.189464 -1.485278
F -1.631527 0.989522 0.263133
F -1.408223 -1.103028 0.068408
S 0.805710 -0.146660 0.308146
O 0.994105 -0.233145 1.721499
O 1.141652 -1.080934 -0.674423
O 1.285745 1.424843 -0.112897
H 2.252358 1.239387 -0.838516
9
Time step 2275
C -0.775606 0.019692 -0.168254
F -0.826936 0.189526 -1.485133
F -1.632065 0.989004 0.263132
F -1.408504 -1.102850 0.068192
S 0.806083 -0.147073 0.307449
O 0.993767 -0.233215 1.721330
O 1.142168 -1.081225 -0.673355
O 1.286374 1.425603 -0.112802
H 2.254357 1.240351 -0.841628
9
Time step 2276
C -0.776355 0.020636 -0.167361
F -0.827091 0.189590 -1.484995
F -1.632597 0.988487 0.263137
F -1.408786 -1.102681 0.067981
S 0.806466 -0.147472 0.306759
O 0.993429 -0.233291 1.721168
O 1.142700 -1.081535 -0.672301
O 1.287027 1.426351 -0.112725
H 2.255967 1.241390 -0.844458
9
Time step 2277
C -0.777158 0.021595 -0.166483
F -0.827245 0.189655 -1.484864
F -1.633124 0.987970 0.263148
F -1.409071 -1.102521 0.067774
S 0.806858 -0.147856 0.306075
O 0.993091 -0.233370 1.721015
O 1.143249 -1.081865 -0.671261
O 1.287704 1.427086 -0.112666
H 2.257188 1.242505 -0.847007
9
Time step 2278
C -0.778013 0.022566 -0.165619
F -0.827397 0.189722 -1.484742
F -1.633645 0.987454 0.263163
F -1.409358 -1.102368 0.067572
S 0.807259 -0.148225 0.305399
O 0.992754 -0.233454 1.720869
O 1.143813 -1.082217 -0.670236
O 1.288405 1.427808 -0.112624
H 2.258022 1.243693 -0.849278
9
Time step 2279
C -0.778920 0.023547 -0.164769
F -0.827548 0.189792 -1.484626
F -1.634161 0.986940 0.263185
F -1.409647 -1.102222 0.067374
S 0.807669 -0.148579 0.304730
O 0.992417 -0.233543 1.720731
O 1.144394 -1.082592 -0.669226
O 1.289129 1.428518 -0.112598
H 2.258469 1.244954 -0.851269
9
Time step 2280
C -0.779880 0.024538 -0.163936
F -0.827696 0.189863 -1.484518
F -1.634673 0.986428 0.263213
F -1.409937 -1.102084 0.067180
S 0.808088 -0.148917 0.304070
O 0.992080 -0.233635 1.720601
O 1.144992 -1.082991 -0.668233
O 1.289876 1.429215 -0.112590
H 2.258531 1.246286 -0.852981
9
Time step 2281
C -0.780897 0.025537 -0.163120
F -0.827842 0.189937 -1.484415
F -1.635180 0.985919 0.263247
F -1.410227 -1.101952 0.066990
S 0.808515 -0.149238 0.303419
O 0.991744 -0.233731 1.720477
O 1.145607 -1.083413 -0.667257
O 1.290646 1.429900 -0.112600
H 2.258210 1.247689 -0.854411
9
Time step 2282
C -0.781971 0.026545 -0.162323
F -0.827983 0.190013 -1.484317
F -1.635682 0.985413 0.263288
F -1.410519 -1.101829 0.066805
S 0.808950 -0.149544 0.302776
O 0.991409 -0.233830 1.720361
O 1.146241 -1.083859 -0.666300
O 1.291439 1.430571 -0.112626
H 2.257504 1.249164 -0.855556
9
Time step 2283
C -0.783101 0.027566 -0.161546
F -0.828120 0.190089 -1.484224
F -1.636178 0.984911 0.263335
F -1.410813 -1.101715 0.066624
S 0.809393 -0.149834 0.302142
O 0.991075 -0.233933 1.720251
O 1.146892 -1.084329 -0.665361
O 1.292255 1.431231 -0.112670
H 2.256414 1.250711 -0.856413
9
Time step 2284
C -0.784283 0.028601 -0.160790
F -0.828255 0.190166 -1.484136
F -1.636669 0.984412 0.263390
F -1.411109 -1.101611 0.066448
S 0.809842 -0.150108 0.301519
O 0.990743 -0.234040 1.720148
O 1.147560 -1.084824 -0.664441
O 1.293094 1.431877 -0.112731
H 2.254940 1.252333 -0.856979
9
Time step 2285
C -0.785514 0.029652 -0.160055
F -0.828387 0.190243 -1.484054
F -1.637155 0.983915 0.263451
F -1.411409 -1.101516 0.066275
S 0.810299 -0.150365 0.300906
O 0.990412 -0.234150 1.720050
O 1.148245 -1.085342 -0.663540
O 1.293958 1.432511 -0.112810
H 2.253081 1.254030 -0.857252
9
Time step 2286
C -0.786793 0.030720 -0.159340
F -0.828518 0.190320 -1.483977
F -1.637636 0.983419 0.263519
F -1.411713 -1.101432 0.066107
S 0.810763 -0.150604 0.300305
O 0.990082 -0.234265 1.719957
O 1.148948 -1.085885 -0.662658
O 1.294846 1.433132 -0.112908
H 2.250838 1.255804 -0.857232
9
Time step 2287
C -0.788122 0.031805 -0.158645
F -0.828647 0.190398 -1.483907
F -1.638112 0.982925 0.263594
F -1.412020 -1.101358 0.065943
S 0.811233 -0.150827 0.299716
O 0.989754 -0.234384 1.719869
O 1.149668 -1.086453 -0.661794
O 1.295760 1.433741 -0.113023
H 2.248211 1.257656 -0.856923
9
Time step 2288
C -0.789502 0.032904 -0.157970
F -0.828774 0.190476 -1.483842
F -1.638583 0.982433 0.263676
F -1.412329 -1.101295 0.065783
S 0.811710 -0.151032 0.299138
O 0.989428 -0.234508 1.719786
O 1.150406 -1.087045 -0.660950
O 1.296699 1.434336 -0.113157
H 2.245201 1.259585 -0.856327
9
Time step 2289
C -0.790935 0.034016 -0.157314
F -0.828897 0.190557 -1.483785
F -1.639049 0.981945 0.263765
F -1.412641 -1.101244 0.065629
S 0.812192 -0.151220 0.298573
O 0.989103 -0.234634 1.719706
O 1.151161 -1.087661 -0.660126
O 1.297664 1.434918 -0.113309
H 2.241809 1.261593 -0.855449
9
Time step 2290
C -0.792421 0.035138 -0.156677
F -0.829017 0.190639 -1.483733
F -1.639510 0.981461 0.263860
F -1.412955 -1.101202 0.065479
S 0.812681 -0.151392 0.298020
O 0.988780 -0.234764 1.719630
O 1.151935 -1.088301 -0.659323
O 1.298652 1.435486 -0.113478
H 2.238038 1.263680 -0.854291
9
Time step 2291
C -0.793957 0.036269 -0.156057
F -0.829133 0.190723 -1.483688
F -1.639967 0.980982 0.263961
F -1.413271 -1.101170 0.065335
S 0.813176 -0.151548 0.297478
O 0.988456 -0.234896 1.719557
O 1.152726 -1.088966 -0.658539
O 1.299664 1.436040 -0.113664
H 2.233889 1.265845 -0.852854
9
Time step 2292
C -0.795540 0.037407 -0.155454
F -0.829247 0.190808 -1.483649
F -1.640420 0.980508 0.264069
F -1.413589 -1.101148 0.065195
S 0.813678 -0.151687 0.296947
O 0.988133 -0.235030 1.719489
O 1.153534 -1.089653 -0.657777
O 1.300700 1.436580 -0.113866
H 2.229364 1.268091 -0.851138
9
Time step 2293
C -0.797166 0.038552 -0.154867
F -0.829359 0.190895 -1.483617
F -1.640870 0.980038 0.264184
F -1.413910 -1.101133 0.065060
S 0.814188 -0.151811 0.296426
O 0.987808 -0.235166 1.719426
O 1.154359 -1.090365 -0.657034
O 1.301758 1.437106 -0.114085
H 2.224464 1.270416 -0.849143
9
Time step 2294
C -0.798833 0.039704 -0.154297
F -0.829469 0.190984 -1.483591
F -1.641316 0.979574 0.264305
F -1.414233 -1.101128 0.064929
S 0.814704 -0.151919 0.295916
O 0.987482 -0.235304 1.719367
O 1.155199 -1.091099 -0.656311
O 1.302838 1.437619 -0.114319
H 2.219192 1.272820 -0.846868
9
Time step 2295
C -0.800543 0.040862 -0.153744
F -0.829577 0.191074 -1.483572
F -1.641757 0.979115 0.264434
F -1.414558 -1.101132 0.064803
S 0.815229 -0.152012 0.295415
O 0.987155 -0.235443 1.719313
O 1.156055 -1.091857 -0.655607
O 1.303939 1.438117 -0.114570
H 2.213551 1.275302 -0.844314
9
Time step 2296
C -0.802296 0.042027 -0.153212
F -0.829682 0.191166 -1.483559
F -1.642195 0.978662 0.264570
F -1.414886 -1.101145 0.064684
S 0.815760 -0.152088 0.294924
O 0.986826 -0.235586 1.719265
O 1.156926 -1.092637 -0.654923
O 1.305061 1.438602 -0.114838
H 2.207545 1.277859 -0.841482
9
Time step 2297
C -0.804094 0.043197 -0.152700
F -0.829783 0.191261 -1.483551
F -1.642628 0.978215 0.264714
F -1.415216 -1.101168 0.064570
S 0.816298 -0.152148 0.294443
O 0.986496 -0.235731 1.719221
O 1.157815 -1.093440 -0.654258
O 1.306203 1.439072 -0.115123
H 2.201182 1.280488 -0.838377
9
Time step 2298
C -0.805935 0.044373 -0.152209
F -0.829880 0.191358 -1.483550
F -1.643057 0.977774 0.264865
F -1.415548 -1.101201 0.064463
S 0.816841 -0.152191 0.293973
O 0.986166 -0.235880 1.719183
O 1.158722 -1.094267 -0.653614
O 1.307365 1.439528 -0.115425
H 2.194469 1.283185 -0.835004
9
Time step 2299
C -0.807817 0.045554 -0.151740
F -0.829975 0.191458 -1.483554
F -1.643483 0.977339 0.265024
F -1.415883 -1.101242 0.064362
S 0.817389 -0.152216 0.293515
O 0.985836 -0.236032 1.719149
O 1.159648 -1.095117 -0.652990
O 1.308546 1.439969 -0.115743
H 2.187418 1.285946 -0.831370
9
Time step 2300
C -0.809737 0.046738 -0.151293
F -0.830067 0.191561 -1.483564
F -1.643907 0.976910 0.265191
F -1.416221 -1.101291 0.064267
S 0.817942 -0.152224 0.293069
O 0.985506 -0.236187 1.719120
O 1.160593 -1.095993 -0.652389
O 1.309745 1.440396 -0.116078
H 2.180040 1.288768 -0.827482
9
Time step 2301
C -0.811693 0.047925 -0.150867
F -0.830157 0.191666 -1.483579
F -1.644330 0.976486 0.265365
F -1.416562 -1.101347 0.064177
S 0.818499 -0.152213 0.292635
O 0.985178 -0.236346 1.719094
O 1.161557 -1.096894 -0.651809
O 1.310963 1.440808 -0.116428
H 2.172346 1.291649 -0.823350
9
Time step 2302
C -0.813684 0.049114 -0.150462
F -0.830245 0.191773 -1.483600
F -1.644752 0.976069 0.265548
F -1.416904 -1.101410 0.064092
S 0.819059 -0.152185 0.292213
O 0.984851 -0.236509 1.719073
O 1.162540 -1.097821 -0.651251
O 1.312198 1.441205 -0.116792
H 2.164350 1.294585 -0.818981
9
Time step 2303
C -0.815711 0.050304 -0.150078
F -0.830331 0.191882 -1.483626
F -1.645174 0.975659 0.265740
F -1.417248 -1.101479 0.064012
S 0.819622 -0.152138 0.291804
O 0.984525 -0.236673 1.719056
O 1.163542 -1.098773 -0.650714
O 1.313451 1.441589 -0.117172
H 2.156064 1.297574 -0.814384
9
Time step 2304
C -0.817776 0.051494 -0.149715
F -0.830414 0.191993 -1.483656
F -1.645596 0.975256 0.265940
F -1.417594 -1.101556 0.063936
S 0.820190 -0.152074 0.291406
O 0.984200 -0.236841 1.719043
O 1.164562 -1.099751 -0.650200
O 1.314720 1.441959 -0.117565
H 2.147502 1.300612 -0.809571
9
Time step 2305
C -0.819879 0.052683 -0.149373
F -0.830493 0.192107 -1.483691
F -1.646018 0.974860 0.266148
F -1.417942 -1.101640 0.063863
S 0.820760 -0.151992 0.291021
O 0.983877 -0.237011 1.719034
O 1.165599 -1.100753 -0.649706
O 1.316006 1.442316 -0.117972
H 2.138679 1.303696 -0.804553
9
Time step 2306
C -0.822018 0.053871 -0.149052
F -0.830569 0.192223 -1.483731
F -1.646439 0.974473 0.266365
F -1.418292 -1.101732 0.063795
S 0.821335 -0.151893 0.290647
O 0.983555 -0.237184 1.719028
O 1.166655 -1.101780 -0.649233
O 1.317307 1.442661 -0.118391
H 2.129612 1.306823 -0.799344
9
Time step 2307
C -0.824192 0.055058 -0.148751
F -0.830642 0.192341 -1.483775
F -1.646860 0.974093 0.266591
F -1.418643 -1.101832 0.063730
S 0.821912 -0.151777 0.290286
O 0.983235 -0.237360 1.719027
O 1.167727 -1.102830 -0.648780
O 1.318621 1.442995 -0.118823
H 2.120322 1.309988 -0.793959
9
Time step 2308
C -0.826397 0.056244 -0.148472
F -0.830714 0.192460 -1.483826
F -1.647280 0.973721 0.266825
F -1.418997 -1.101940 0.063669
S 0.822493 -0.151643 0.289937
O 0.982916 -0.237539 1.719029
O 1.168815 -1.103904 -0.648348
O 1.319949 1.443318 -0.119265
H 2.110832 1.313188 -0.788417
9
Time step 2309
C -0.828631 0.057430 -0.148215
F -0.830785 0.192581 -1.483882
F -1.647700 0.973358 0.267068
F -1.419352 -1.102056 0.063612
S 0.823076 -0.151493 0.289602
O 0.982599 -0.237722 1.719034
O 1.169919 -1.105001 -0.647937
O 1.321287 1.443630 -0.119716
H 2.101169 1.316422 -0.782741
9
Time step 2310
C -0.830892 0.058615 -0.147980
F -0.830854 0.192702 -1.483945
F -1.648120 0.973002 0.267320
F -1.419709 -1.102180 0.063559
S 0.823660 -0.151325 0.289281
O 0.982284 -0.237909 1.719042
O 1.171039 -1.106121 -0.647546
O 1.322634 1.443932 -0.120176
H 2.091364 1.319687 -0.776953
9
Time step 2311
C -0.833177 0.059800 -0.147768
F -0.830923 0.192826 -1.484014
F -1.648541 0.972655 0.267581
F -1.420069 -1.102313 0.063511
S 0.824246 -0.151141 0.288973
O 0.981970 -0.238098 1.719052
O 1.172173 -1.107264 -0.647175
O 1.323988 1.444224 -0.120642
H 2.081449 1.322982 -0.771083
9
Time step 2312
C -0.835485 0.060983 -0.147580
F -0.830991 0.192952 -1.484088
F -1.648962 0.972316 0.267850
F -1.420431 -1.102455 0.063469
S 0.824834 -0.150940 0.288679
O 0.981657 -0.238291 1.719065
O 1.173323 -1.108430 -0.646824
O 1.325348 1.444505 -0.121111
H 2.071460 1.326307 -0.765159
9
Time step 2313
C -0.837814 0.062163 -0.147416
F -0.831057 0.193080 -1.484169
F -1.649384 0.971986 0.268129
F -1.420797 -1.102605 0.063432
S 0.825424 -0.150723 0.288396
O 0.981346 -0.238486 1.719080
O 1.174488 -1.109618 -0.646494
O 1.326710 1.444776 -0.121582
H 2.061435 1.329658 -0.759215
9
Time step 2314
C -0.840164 0.063340 -0.147274
F -0.831121 0.193212 -1.484255
F -1.649809 0.971665 0.268415
F -1.421166 -1.102766 0.063401
S 0.826015 -0.150491 0.288126
O 0.981037 -0.238683 1.719098
O 1.175668 -1.110828 -0.646182
O 1.328071 1.445037 -0.122052
H 2.051414 1.333033 -0.753286
9
Time step 2315
C -0.842534 0.064514 -0.147153
F -0.831184 0.193346 -1.484345
F -1.650235 0.971355 0.268711
F -1.421539 -1.102937 0.063375
S 0.826608 -0.150242 0.287866
O 0.980728 -0.238881 1.719118
O 1.176864 -1.112059 -0.645890
O 1.329430 1.445288 -0.122518
H 2.041440 1.336426 -0.747409
9
Time step 2316
C -0.844925 0.065683 -0.147054
F -0.831245 0.193483 -1.484440
F -1.650663 0.971056 0.269014
F -1.421915 -1.103117 0.063354
S 0.827203 -0.149978 0.287616
O 0.980419 -0.239082 1.719140
O 1.178075 -1.113313 -0.645616
O 1.330782 1.445528 -0.122977
H 2.031560 1.339831 -0.741626
9
Time step 2317
C -0.847336 0.066848 -0.146975
F -0.831304 0.193621 -1.484541
F -1.651093 0.970767 0.269327
F -1.422294 -1.103306 0.063338
S 0.827799 -0.149697 0.287377
O 0.980112 -0.239285 1.719164
O 1.179300 -1.114587 -0.645360
O 1.332124 1.445759 -0.123428
H 2.021823 1.343239 -0.735980
9
Time step 2318
C -0.849767 0.068008 -0.146915
F -0.831361 0.193761 -1.484647
F -1.651523 0.970490 0.269648
F -1.422674 -1.103504 0.063327
S 0.828397 -0.149401 0.287148
O 0.979804 -0.239490 1.719190
O 1.180539 -1.115882 -0.645121
O 1.333452 1.445980 -0.123866
H 2.012281 1.346643 -0.730520
9
Time step 2319
C -0.852217 0.069162 -0.146876
F -0.831416 0.193903 -1.484758
F -1.651955 0.970225 0.269979
F -1.423056 -1.103710 0.063320
S 0.828996 -0.149088 0.286929
O 0.979497 -0.239698 1.719218
O 1.181794 -1.117196 -0.644899
O 1.334763 1.446191 -0.124289
H 2.002991 1.350034 -0.725298
9
Time step 2320
C -0.854684 0.070306 -0.146856
F -0.831471 0.194047 -1.484876
F -1.652389 0.969970 0.270319
F -1.423440 -1.103923 0.063317
S 0.829597 -0.148760 0.286721
O 0.979190 -0.239909 1.719248
O 1.183063 -1.118530 -0.644694
O 1.336053 1.446391 -0.124693
H 1.994013 1.353404 -0.720371
9
Time step 2321
C -0.857167 0.071438 -0.146860
F -0.831524 0.194195 -1.485000
F -1.652826 0.969728 0.270669
F -1.423826 -1.104143 0.063321
S 0.830199 -0.148416 0.286523
O 0.978885 -0.240121 1.719280
O 1.184347 -1.119881 -0.644506
O 1.337318 1.446583 -0.125075
H 1.985406 1.356744 -0.715797
9
Time step 2322
C -0.859665 0.072554 -0.146888
F -0.831577 0.194346 -1.485130
F -1.653267 0.969498 0.271029
F -1.424216 -1.104368 0.063330
S 0.830803 -0.148057 0.286336
O 0.978580 -0.240336 1.719313
O 1.185647 -1.121250 -0.644334
O 1.338554 1.446765 -0.125431
H 1.977236 1.360044 -0.711637
9
Time step 2323
C -0.862179 0.073652 -0.146943
F -0.831628 0.194501 -1.485265
F -1.653712 0.969281 0.271400
F -1.424608 -1.104599 0.063344
S 0.831407 -0.147684 0.286159
O 0.978276 -0.240551 1.719347
O 1.186961 -1.122636 -0.644178
O 1.339759 1.446938 -0.125756
H 1.969562 1.363298 -0.707951
9
Time step 2324
C -0.864707 0.074731 -0.147025
F -0.831678 0.194659 -1.485406
F -1.654162 0.969079 0.271782
F -1.425001 -1.104835 0.063364
S 0.832012 -0.147295 0.285992
O 0.977974 -0.240768 1.719384
O 1.188291 -1.124040 -0.644037
O 1.340928 1.447104 -0.126048
H 1.962444 1.366494 -0.704796
9
Time step 2325
C -0.867247 0.075792 -0.147134
F -0.831726 0.194819 -1.485551
F -1.654618 0.968892 0.272176
F -1.425397 -1.105077 0.063389
S 0.832617 -0.146893 0.285835
O 0.977674 -0.240986 1.719422
O 1.189635 -1.125459 -0.643912
O 1.342059 1.447264 -0.126303
H 1.955939 1.369627 -0.702228
9
Time step 2326
C -0.869798 0.076837 -0.147269
F -0.831773 0.194982 -1.485701
F -1.655080 0.968719 0.272583
F -1.425794 -1.105325 0.063417
S 0.833221 -0.146478 0.285688
O 0.977376 -0.241205 1.719462
O 1.190994 -1.126896 -0.643802
O 1.343149 1.447419 -0.126517
H 1.950098 1.372688 -0.700298
9
Time step 2327
C -0.872355 0.077866 -0.147427
F -0.831818 0.195146 -1.485855
F -1.655549 0.968561 0.273002
F -1.426193 -1.105580 0.063449
S 0.833824 -0.146049 0.285549
O 0.977079 -0.241426 1.719504
O 1.192366 -1.128348 -0.643707
O 1.344195 1.447570 -0.126689
H 1.944965 1.375671 -0.699057
9
Time step 2328
C -0.874916 0.078881 -0.147608
F -0.831863 0.195312 -1.486015
F -1.656025 0.968417 0.273432
F -1.426595 -1.105841 0.063484
S 0.834427 -0.145608 0.285419
O 0.976784 -0.241647 1.719550
O 1.193751 -1.129816 -0.643625
O 1.345195 1.447717 -0.126815
H 1.940582 1.378573 -0.698547
9
Time step 2329
C -0.877479 0.079880 -0.147810
F -0.831906 0.195481 -1.486181
F -1.656509 0.968287 0.273872
F -1.427001 -1.106109 0.063524
S 0.835027 -0.145154 0.285297
O 0.976492 -0.241871 1.719597
O 1.195150 -1.131300 -0.643557
O 1.346146 1.447862 -0.126893
H 1.936981 1.381391 -0.698807
9
Time step 2330
C -0.880044 0.080862 -0.148034
F -0.831949 0.195655 -1.486352
F -1.657001 0.968171 0.274323
F -1.427410 -1.106384 0.063569
S 0.835626 -0.144688 0.285183
O 0.976201 -0.242095 1.719648
O 1.196562 -1.132798 -0.643502
O 1.347048 1.448004 -0.126921
H 1.934189 1.384125 -0.699868
9
Time step 2331
C -0.882612 0.081825 -0.148281
F -0.831991 0.195832 -1.486529
F -1.657499 0.968069 0.274785
F -1.427823 -1.106666 0.063618
S 0.836223 -0.144210 0.285077
O 0.975913 -0.242321 1.719702
O 1.197988 -1.134311 -0.643460
O 1.347900 1.448143 -0.126898
H 1.932224 1.386778 -0.701753
9
Time step 2332
C -0.885183 0.082768 -0.148552
F -0.832032 0.196013 -1.486711
F -1.658005 0.967982 0.275258
F -1.428237 -1.106955 0.063673
S 0.836819 -0.143720 0.284978
O 0.975626 -0.242548 1.719758
O 1.199427 -1.135838 -0.643430
O 1.348700 1.448279 -0.126823
H 1.931092 1.389352 -0.704474
9
Time step 2333
C -0.887754 0.083693 -0.148847
F -0.832073 0.196197 -1.486898
F -1.658518 0.967910 0.275743
F -1.428655 -1.107251 0.063732
S 0.837413 -0.143218 0.284888
O 0.975341 -0.242776 1.719816
O 1.200878 -1.137378 -0.643413
O 1.349448 1.448410 -0.126696
H 1.930791 1.391852 -0.708031
9
Time step 2334
C -0.890325 0.084601 -0.149166
F -0.832114 0.196385 -1.487091
F -1.659037 0.967853 0.276239
F -1.429074 -1.107554 0.063795
S 0.838006 -0.142704 0.284806
O 0.975056 -0.243006 1.719876
O 1.202340 -1.138930 -0.643406
O 1.350146 1.448536 -0.126518
H 1.931304 1.394284 -0.712412
9
Time step 2335
C -0.892891 0.085493 -0.149508
F -0.832156 0.196574 -1.487290
F -1.659565 0.967812 0.276746
F -1.429497 -1.107865 0.063862
S 0.838598 -0.142179 0.284733
O 0.974773 -0.243238 1.719937
O 1.203814 -1.140493 -0.643411
O 1.350793 1.448656 -0.126291
H 1.932602 1.396654 -0.717596
9
Time step 2336
C -0.895448 0.086371 -0.149871
F -0.832199 0.196765 -1.487494
F -1.660101 0.967786 0.277265
F -1.429924 -1.108184 0.063933
S 0.839190 -0.141644 0.284668
O 0.974490 -0.243472 1.719998
O 1.205299 -1.142066 -0.643427
O 1.351393 1.448770 -0.126016
H 1.934649 1.398965 -0.723551
9
Time step 2337
C -0.897996 0.087233 -0.150256
F -0.832244 0.196959 -1.487704
F -1.660647 0.967776 0.277794
F -1.430354 -1.108510 0.064007
S 0.839782 -0.141098 0.284611
O 0.974208 -0.243707 1.720058
O 1.206794 -1.143650 -0.643452
O 1.351946 1.448878 -0.125695
H 1.937396 1.401223 -0.730238
9
Time step 2338
C -0.900534 0.088078 -0.150665
F -0.832289 0.197155 -1.487919
F -1.661203 0.967783 0.278334
F -1.430787 -1.108844 0.064086
S 0.840374 -0.140542 0.284563
O 0.973928 -0.243943 1.720119
O 1.208298 -1.145244 -0.643488
O 1.352458 1.448979 -0.125332
H 1.940792 1.403430 -0.737609
9
Time step 2339
C -0.903064 0.088901 -0.151097
F -0.832335 0.197355 -1.488139
F -1.661768 0.967806 0.278884
F -1.431223 -1.109184 0.064169
S 0.840965 -0.139976 0.284522
O 0.973649 -0.244181 1.720179
O 1.209813 -1.146846 -0.643533
O 1.352932 1.449074 -0.124929
H 1.944780 1.405590 -0.745613
9
Time step 2340
C -0.905586 0.089700 -0.151554
F -0.832381 0.197558 -1.488364
F -1.662343 0.967848 0.279446
F -1.431661 -1.109531 0.064257
S 0.841555 -0.139400 0.284489
O 0.973372 -0.244420 1.720240
O 1.211336 -1.148457 -0.643587
O 1.353371 1.449161 -0.124490
H 1.949302 1.407708 -0.754194
9
Time step 2341
C -0.908103 0.090471 -0.152035
F -0.832427 0.197765 -1.488594
F -1.662926 0.967907 0.280019
F -1.432101 -1.109882 0.064349
S 0.842144 -0.138814 0.284462
O 0.973096 -0.244660 1.720302
O 1.212869 -1.150076 -0.643651
O 1.353779 1.449240 -0.124018
H 1.954300 1.409789 -0.763294
9
Time step 2342
C -0.910612 0.091213 -0.152539
F -0.832473 0.197975 -1.488829
F -1.663518 0.967984 0.280603
F -1.432543 -1.110238 0.064445
S 0.842731 -0.138217 0.284442
O 0.972823 -0.244901 1.720367
O 1.214411 -1.151703 -0.643723
O 1.354162 1.449312 -0.123517
H 1.959715 1.411837 -0.772852
9
Time step 2343
C -0.913113 0.091925 -0.153065
F -0.832521 0.198188 -1.489069
F -1.664118 0.968079 0.281199
F -1.432988 -1.110599 0.064543
S 0.843317 -0.137610 0.284427
O 0.972551 -0.245144 1.720433
O 1.215963 -1.153336 -0.643803
O 1.354521 1.449375 -0.122991
H 1.965487 1.413859 -0.782805
9
Time step 2344
C -0.915601 0.092608 -0.153612
F -0.832569 0.198403 -1.489315
F -1.664729 0.968193 0.281807
F -1.433436 -1.110965 0.064644
S 0.843901 -0.136994 0.284416
O 0.972281 -0.245388 1.720502
O 1.217522 -1.154976 -0.643889
O 1.354862 1.449431 -0.122445
H 1.971560 1.415858 -0.793093
9
Time step 2345
C -0.918074 0.093261 -0.154183
F -0.832618 0.198622 -1.489566
F -1.665350 0.968326 0.282428
F -1.433887 -1.111335 0.064748
S 0.844485 -0.136368 0.284410
O 0.972013 -0.245635 1.720575
O 1.219089 -1.156621 -0.643980
O 1.355186 1.449480 -0.121882
H 1.977878 1.417838 -0.803654
9
Time step 2346
C -0.920531 0.093884 -0.154778
F -0.832669 0.198843 -1.489822
F -1.665983 0.968478 0.283061
F -1.434340 -1.111709 0.064856
S 0.845067 -0.135734 0.284408
O 0.971746 -0.245882 1.720649
O 1.220664 -1.158272 -0.644077
O 1.355498 1.449521 -0.121305
H 1.984389 1.419798 -0.814431
9
Time step 2347
C -0.922972 0.094477 -0.155401
F -0.832721 0.199068 -1.490083
F -1.666627 0.968649 0.283707
F -1.434797 -1.112088 0.064967
S 0.845648 -0.135092 0.284409
O 0.971483 -0.246132 1.720727
O 1.222246 -1.159927 -0.644177
O 1.355799 1.449555 -0.120717
H 1.991041 1.421740 -0.825369
9
Time step 2348
C -0.925395 0.095039 -0.156051
F -0.832774 0.199295 -1.490349
F -1.667283 0.968841 0.284367
F -1.435256 -1.112471 0.065082
S 0.846227 -0.134443 0.284413
O 0.971221 -0.246381 1.720807
O 1.223835 -1.161586 -0.644282
O 1.356094 1.449581 -0.120122
H 1.997789 1.423662 -0.836417
9
Time step 2349
C -0.927803 0.095570 -0.156727
F -0.832828 0.199526 -1.490620
F -1.667951 0.969052 0.285039
F -1.435718 -1.112858 0.065201
S 0.846805 -0.133788 0.284419
O 0.970963 -0.246631 1.720890
O 1.225433 -1.163248 -0.644389
O 1.356384 1.449601 -0.119521
H 2.004589 1.425564 -0.847526
9
Time step 2350
C -0.930194 0.096070 -0.157429
F -0.832884 0.199759 -1.490896
F -1.668631 0.969283 0.285725
F -1.436184 -1.113248 0.065323
S 0.847381 -0.133127 0.284428
O 0.970708 -0.246881 1.720975
O 1.227039 -1.164913 -0.644500
O 1.356672 1.449612 -0.118918
H 2.011402 1.427447 -0.858655
9
Time step 2351
C -0.932568 0.096539 -0.158151
F -0.832940 0.199996 -1.491178
F -1.669322 0.969533 0.286423
F -1.436654 -1.113642 0.065449
S 0.847956 -0.132461 0.284438
O 0.970457 -0.247131 1.721062
O 1.228653 -1.166579 -0.644613
O 1.356961 1.449616 -0.118313
H 2.018189 1.429311 -0.869765
9
Time step 2352
C -0.934923 0.096979 -0.158894
F -0.832998 0.200235 -1.491467
F -1.670026 0.969803 0.287132
F -1.437128 -1.114040 0.065579
S 0.848529 -0.131789 0.284450
O 0.970208 -0.247381 1.721152
O 1.230275 -1.168245 -0.644728
O 1.357253 1.449611 -0.117711
H 2.024917 1.431158 -0.880820
9
Time step 2353
C -0.937259 0.097388 -0.159656
F -0.833056 0.200479 -1.491762
F -1.670743 0.970092 0.287853
F -1.437606 -1.114443 0.065713
S 0.849099 -0.131112 0.284462
O 0.969963 -0.247631 1.721244
O 1.231906 -1.169911 -0.644844
O 1.357550 1.449597 -0.117113
H 2.031555 1.432987 -0.891788
9
Time step 2354
C -0.939572 0.097766 -0.160440
F -0.833116 0.200726 -1.492062
F -1.671473 0.970402 0.288586
F -1.438087 -1.114851 0.065851
S 0.849667 -0.130430 0.284475
O 0.969720 -0.247882 1.721338
O 1.233544 -1.171576 -0.644962
O 1.357853 1.449575 -0.116521
H 2.038075 1.434799 -0.902639
9
Time step 2355
C -0.941862 0.098114 -0.161248
F -0.833176 0.200977 -1.492369
F -1.672218 0.970732 0.289331
F -1.438572 -1.115265 0.065994
S 0.850233 -0.129743 0.284489
O 0.969480 -0.248133 1.721434
O 1.235190 -1.173241 -0.645080
O 1.358165 1.449545 -0.115938
H 2.044451 1.436595 -0.913347
9
Time step 2356
C -0.944127 0.098432 -0.162081
F -0.833238 0.201232 -1.492680
F -1.672976 0.971084 0.290089
F -1.439061 -1.115684 0.066142
S 0.850797 -0.129053 0.284504
O 0.969241 -0.248385 1.721532
O 1.236843 -1.174904 -0.645199
O 1.358486 1.449507 -0.115363
H 2.050662 1.438371 -0.923884
9
Time step 2357
C -0.946364 0.098721 -0.162942
F -0.833302 0.201491 -1.492997
F -1.673746 0.971455 0.290861
F -1.439554 -1.116108 0.066295
S 0.851358 -0.128358 0.284520
O 0.969005 -0.248636 1.721632
O 1.238503 -1.176567 -0.645318
O 1.358817 1.449461 -0.114800
H 2.056685 1.440128 -0.934224
9
Time step 2358
C -0.948574 0.098980 -0.163828
F -0.833370 0.201754 -1.493319
F -1.674529 0.971846 0.291645
F -1.440051 -1.116538 0.066451
S 0.851917 -0.127660 0.284536
O 0.968771 -0.248886 1.721735
O 1.240169 -1.178228 -0.645437
O 1.359158 1.449407 -0.114249
H 2.062504 1.441865 -0.944343
9
Time step 2359
C -0.950756 0.099211 -0.164737
F -0.833441 0.202020 -1.493646
F -1.675324 0.972256 0.292442
F -1.440553 -1.116972 0.066611
S 0.852474 -0.126959 0.284553
O 0.968539 -0.249136 1.721839
O 1.241843 -1.179888 -0.645556
O 1.359512 1.449346 -0.113712
H 2.068100 1.443580 -0.954216
9
Time step 2360
C -0.952909 0.099413 -0.165666
F -0.833515 0.202288 -1.493980
F -1.676130 0.972685 0.293251
F -1.441060 -1.117411 0.066773
S 0.853030 -0.126254 0.284571
O 0.968308 -0.249386 1.721946
O 1.243522 -1.181545 -0.645674
O 1.359878 1.449278 -0.113191
H 2.073457 1.445272 -0.963821
9
Time step 2361
C -0.955036 0.099584 -0.166613
F -0.833593 0.202560 -1.494319
F -1.676947 0.973132 0.294071
F -1.441571 -1.117853 0.066936
S 0.853584 -0.125545 0.284590
O 0.968080 -0.249635 1.722054
O 1.245206 -1.183200 -0.645791
O 1.360259 1.449204 -0.112687
H 2.078561 1.446940 -0.973140
9
Time step 2362
C -0.957136 0.099722 -0.167577
F -0.833673 0.202835 -1.494664
F -1.677775 0.973598 0.294902
F -1.442086 -1.118298 0.067101
S 0.854137 -0.124833 0.284609
O 0.967854 -0.249884 1.722163
O 1.246894 -1.184851 -0.645906
O 1.360656 1.449123 -0.112202
H 2.083399 1.448585 -0.982155
9
Time step 2363
C -0.959212 0.099827 -0.168559
F -0.833756 0.203113 -1.495015
F -1.678616 0.974082 0.295745
F -1.442604 -1.118746 0.067269
S 0.854687 -0.124119 0.284629
O 0.967630 -0.250134 1.722273
O 1.248585 -1.186497 -0.646020
O 1.361069 1.449036 -0.111736
H 2.087962 1.450204 -0.990854
9
Time step 2364
C -0.961262 0.099898 -0.169560
F -0.833842 0.203394 -1.495372
F -1.679469 0.974586 0.296598
F -1.443125 -1.119196 0.067438
S 0.855237 -0.123401 0.284650
O 0.967408 -0.250384 1.722383
O 1.250279 -1.188139 -0.646131
O 1.361500 1.448944 -0.111291
H 2.092241 1.451796 -0.999225
9
Time step 2365
C -0.963287 0.099933 -0.170580
F -0.833930 0.203679 -1.495733
F -1.680334 0.975108 0.297462
F -1.443648 -1.119648 0.067610
S 0.855785 -0.122682 0.284672
O 0.967187 -0.250634 1.722494
O 1.251977 -1.189774 -0.646239
O 1.361949 1.448845 -0.110866
H 2.096231 1.453360 -1.007261
9
Time step 2366
C -0.965286 0.099934 -0.171619
F -0.834021 0.203966 -1.496099
F -1.681211 0.975649 0.298337
F -1.444175 -1.120103 0.067784
S 0.856331 -0.121961 0.284693
O 0.966969 -0.250885 1.722605
O 1.253677 -1.191403 -0.646345
O 1.362418 1.448741 -0.110462
H 2.099929 1.454895 -1.014955
9
Time step 2367
C -0.967257 0.099900 -0.172679
F -0.834116 0.204257 -1.496468
F -1.682099 0.976209 0.299222
F -1.444706 -1.120562 0.067960
S 0.856875 -0.121238 0.284715
O 0.966753 -0.251135 1.722718
O 1.255380 -1.193023 -0.646448
O 1.362906 1.448630 -0.110078
H 2.103331 1.456400 -1.022303
9
Time step 2368
C -0.969197 0.099832 -0.173758
F -0.834216 0.204551 -1.496842
F -1.683000 0.976788 0.300117
F -1.445241 -1.121023 0.068139
S 0.857418 -0.120513 0.284736
O 0.966539 -0.251386 1.722833
O 1.257087 -1.194635 -0.646548
O 1.363413 1.448514 -0.109716
H 2.106437 1.457873 -1.029302
9
Time step 2369
C -0.971106 0.099729 -0.174856
F -0.834319 0.204848 -1.497220
F -1.683913 0.977385 0.301023
F -1.445781 -1.121487 0.068320
S 0.857957 -0.119786 0.284756
O 0.966327 -0.251636 1.722950
O 1.258796 -1.196239 -0.646645
O 1.363940 1.448391 -0.109376
H 2.109244 1.459312 -1.035948
9
Time step 2370
C -0.972982 0.099591 -0.175972
F -0.834427 0.205148 -1.497603
F -1.684837 0.978002 0.301938
F -1.446324 -1.121953 0.068503
S 0.858495 -0.119059 0.284774
O 0.966117 -0.251887 1.723071
O 1.260508 -1.197834 -0.646738
O 1.364485 1.448263 -0.109057
H 2.111751 1.460714 -1.042238
9
Time step 2371
C -0.974826 0.099418 -0.177107
F -0.834539 0.205452 -1.497991
F -1.685775 0.978636 0.302865
F -1.446871 -1.122422 0.068689
S 0.859030 -0.118331 0.284791
O 0.965909 -0.252137 1.723194
O 1.262222 -1.199419 -0.646827
O 1.365049 1.448128 -0.108760
H 2.113958 1.462075 -1.048169
9
Time step 2372
C -0.976638 0.099213 -0.178259
F -0.834655 0.205759 -1.498385
F -1.686725 0.979289 0.303802
F -1.447422 -1.122892 0.068876
S 0.859564 -0.117602 0.284806
O 0.965703 -0.252387 1.723321
O 1.263939 -1.200995 -0.646912
O 1.365631 1.447988 -0.108484
H 2.115863 1.463393 -1.053739
9
Time step 2373
C -0.978418 0.098977 -0.179428
F -0.834775 0.206068 -1.498786
F -1.687688 0.979960 0.304750
F -1.447976 -1.123364 0.069066
S 0.860096 -0.116874 0.284819
O 0.965500 -0.252637 1.723451
O 1.265658 -1.202561 -0.646991
O 1.366231 1.447843 -0.108230
H 2.117465 1.464664 -1.058944
9
Time step 2374
C -0.980169 0.098713 -0.180613
F -0.834899 0.206381 -1.499192
F -1.688663 0.980647 0.305709
F -1.448533 -1.123839 0.069257
S 0.860628 -0.116148 0.284828
O 0.965298 -0.252886 1.723584
O 1.267379 -1.204117 -0.647064
O 1.366849 1.447692 -0.107998
H 2.118764 1.465885 -1.063780
9
Time step 2375
C -0.981892 0.098423 -0.181812
F -0.835026 0.206696 -1.499605
F -1.689650 0.981351 0.306678
F -1.449094 -1.124315 0.069449
S 0.861158 -0.115423 0.284834
O 0.965099 -0.253134 1.723720
O 1.269103 -1.205662 -0.647131
O 1.367483 1.447536 -0.107788
H 2.119760 1.467054 -1.068246
9
Time step 2376
C -0.983588 0.098106 -0.183026
F -0.835157 0.207014 -1.500024
F -1.690649 0.982072 0.307658
F -1.449658 -1.124795 0.069643
S 0.861688 -0.114700 0.284836
O 0.964902 -0.253380 1.723859
O 1.270828 -1.207195 -0.647190
O 1.368135 1.447375 -0.107599
H 2.120454 1.468172 -1.072338
9
Time step 2377
C -0.985257 0.097762 -0.184253
F -0.835290 0.207334 -1.500449
F -1.691658 0.982808 0.308647
F -1.450226 -1.125277 0.069839
S 0.862217 -0.113979 0.284834
O 0.964709 -0.253626 1.724001
O 1.272554 -1.208716 -0.647243
O 1.368804 1.447209 -0.107433
H 2.120845 1.469240 -1.076054
9
Time step 2378
C -0.986899 0.097388 -0.185494
F -0.835425 0.207658 -1.500880
F -1.692678 0.983561 0.309647
F -1.450797 -1.125762 0.070037
S 0.862744 -0.113260 0.284828
O 0.964518 -0.253871 1.724146
O 1.274282 -1.210224 -0.647287
O 1.369491 1.447037 -0.107290
H 2.120933 1.470259 -1.079393
9
Time step 2379
C -0.988513 0.096984 -0.186749
F -0.835564 0.207986 -1.501317
F -1.693707 0.984328 0.310655
F -1.451372 -1.126248 0.070236
S 0.863269 -0.112542 0.284817
O 0.964330 -0.254116 1.724295
O 1.276011 -1.211720 -0.647323
O 1.370196 1.446861 -0.107169
H 2.120720 1.471232 -1.082351
9
Time step 2380
C -0.990096 0.096549 -0.188015
F -0.835706 0.208318 -1.501761
F -1.694747 0.985111 0.311672
F -1.451952 -1.126735 0.070438
S 0.863791 -0.111826 0.284802
O 0.964145 -0.254361 1.724446
O 1.277741 -1.213203 -0.647351
O 1.370919 1.446679 -0.107071
H 2.120205 1.472161 -1.084926
9
Time step 2381
C -0.991648 0.096084 -0.189292
F -0.835852 0.208654 -1.502212
F -1.695796 0.985909 0.312697
F -1.452536 -1.127223 0.070642
S 0.864311 -0.111112 0.284784
O 0.963964 -0.254605 1.724600
O 1.279472 -1.214674 -0.647371
O 1.371659 1.446493 -0.106996
H 2.119388 1.473048 -1.087116
9
Time step 2382
C -0.993168 0.095589 -0.190578
F -0.836004 0.208994 -1.502669
F -1.696854 0.986720 0.313729
F -1.453125 -1.127711 0.070847
S 0.864828 -0.110400 0.284762
O 0.963786 -0.254850 1.724755
O 1.281204 -1.216133 -0.647383
O 1.372417 1.446303 -0.106944
H 2.118269 1.473895 -1.088916
9
Time step 2383
C -0.994654 0.095067 -0.191872
F -0.836161 0.209337 -1.503133
F -1.697921 0.987546 0.314769
F -1.453718 -1.128201 0.071054
S 0.865342 -0.109690 0.284736
O 0.963611 -0.255093 1.724912
O 1.282939 -1.217579 -0.647386
O 1.373194 1.446110 -0.106915
H 2.116848 1.474701 -1.090321
9
Time step 2384
C -0.996107 0.094518 -0.193174
F -0.836323 0.209683 -1.503603
F -1.698997 0.988385 0.315815
F -1.454316 -1.128692 0.071262
S 0.865854 -0.108983 0.284706
O 0.963438 -0.255336 1.725069
O 1.284675 -1.219013 -0.647382
O 1.373988 1.445913 -0.106909
H 2.115126 1.475467 -1.091328
9
Time step 2385
C -0.997526 0.093942 -0.194487
F -0.836491 0.210031 -1.504079
F -1.700082 0.989238 0.316869
F -1.454917 -1.129184 0.071472
S 0.866362 -0.108279 0.284674
O 0.963268 -0.255577 1.725227
O 1.286411 -1.220434 -0.647369
O 1.374801 1.445713 -0.106926
H 2.113101 1.476190 -1.091934
9
Time step 2386
C -0.998913 0.093342 -0.195811
F -0.836665 0.210382 -1.504559
F -1.701174 0.990104 0.317930
F -1.455524 -1.129678 0.071682
S 0.866867 -0.107579 0.284637
O 0.963100 -0.255818 1.725386
O 1.288148 -1.221842 -0.647348
O 1.375633 1.445510 -0.106968
H 2.110775 1.476871 -1.092136
9
Time step 2387
C -1.000269 0.092715 -0.197150
F -0.836844 0.210736 -1.505044
F -1.702274 0.990982 0.319000
F -1.456134 -1.130173 0.071895
S 0.867369 -0.106883 0.284598
O 0.962935 -0.256057 1.725546
O 1.289885 -1.223236 -0.647319
O 1.376484 1.445306 -0.107033
H 2.108147 1.477507 -1.091934
9
Time step 2388
C -1.001595 0.092064 -0.198503
F -0.837027 0.211092 -1.505533
F -1.703382 0.991872 0.320077
F -1.456749 -1.130670 0.072109
S 0.867869 -0.106191 0.284555
O 0.962772 -0.256294 1.725706
O 1.291621 -1.224614 -0.647280
O 1.377354 1.445099 -0.107122
H 2.105217 1.478098 -1.091331
9
Time step 2389
C -1.002892 0.091390 -0.199869
F -0.837217 0.211452 -1.506027
F -1.704496 0.992772 0.321160
F -1.457369 -1.131168 0.072325
S 0.868368 -0.105503 0.284509
O 0.962613 -0.256530 1.725866
O 1.293356 -1.225976 -0.647231
O 1.378245 1.444889 -0.107235
H 2.101987 1.478643 -1.090329
9
Time step 2390
C -1.004162 0.090694 -0.201244
F -0.837412 0.211814 -1.506526
F -1.705618 0.993683 0.322249
F -1.457993 -1.131667 0.072543
S 0.868865 -0.104821 0.284459
O 0.962455 -0.256765 1.726027
O 1.295091 -1.227321 -0.647172
O 1.379154 1.444676 -0.107371
H 2.098459 1.479139 -1.088932
9
Time step 2391
C -1.005405 0.089977 -0.202627
F -0.837613 0.212180 -1.507029
F -1.706746 0.994604 0.323342
F -1.458623 -1.132167 0.072762
S 0.869361 -0.104145 0.284406
O 0.962301 -0.256998 1.726188
O 1.296825 -1.228648 -0.647103
O 1.380082 1.444461 -0.107530
H 2.094634 1.479584 -1.087145
9
Time step 2392
C -1.006621 0.089239 -0.204013
F -0.837819 0.212549 -1.507538
F -1.707880 0.995534 0.324440
F -1.459257 -1.132669 0.072981
S 0.869856 -0.103474 0.284349
O 0.962148 -0.257229 1.726348
O 1.298558 -1.229958 -0.647024
O 1.381029 1.444243 -0.107712
H 2.090515 1.479975 -1.084971
9
Time step 2393
C -1.007809 0.088479 -0.205399
F -0.838031 0.212921 -1.508053
F -1.709021 0.996474 0.325541
F -1.459895 -1.133170 0.073200
S 0.870350 -0.102810 0.284287
O 0.961998 -0.257458 1.726508
O 1.300290 -1.231249 -0.646934
O 1.381993 1.444021 -0.107917
H 2.086108 1.480310 -1.082413
9
Time step 2394
C -1.008968 0.087697 -0.206786
F -0.838249 0.213296 -1.508573
F -1.710168 0.997423 0.326645
F -1.460536 -1.133671 0.073418
S 0.870843 -0.102151 0.284222
O 0.961850 -0.257685 1.726668
O 1.302022 -1.232523 -0.646833
O 1.382974 1.443797 -0.108145
H 2.081414 1.480587 -1.079473
9
Time step 2395
C -1.010099 0.086891 -0.208173
F -0.838471 0.213674 -1.509099
F -1.711322 0.998381 0.327754
F -1.461181 -1.134171 0.073636
S 0.871333 -0.101498 0.284152
O 0.961704 -0.257911 1.726828
O 1.303752 -1.233779 -0.646722
O 1.383972 1.443570 -0.108396
H 2.076439 1.480806 -1.076153
9
Time step 2396
C -1.011201 0.086062 -0.209560
F -0.838700 0.214056 -1.509632
F -1.712480 0.999348 0.328867
F -1.461829 -1.134670 0.073854
S 0.871821 -0.100850 0.284077
O 0.961560 -0.258134 1.726988
O 1.305481 -1.235017 -0.646599
O 1.384986 1.443339 -0.108670
H 2.071186 1.480965 -1.072456
9
Time step 2397
C -1.012275 0.085212 -0.210948
F -0.838934 0.214442 -1.510171
F -1.713645 1.000323 0.329985
F -1.462481 -1.135168 0.074071
S 0.872306 -0.100209 0.283998
O 0.961419 -0.258355 1.727149
O 1.307209 -1.236237 -0.646465
O 1.386017 1.443106 -0.108965
H 2.065662 1.481066 -1.068387
9
Time step 2398
C -1.013321 0.084344 -0.212336
F -0.839174 0.214830 -1.510717
F -1.714813 1.001305 0.331106
F -1.463136 -1.135666 0.074287
S 0.872790 -0.099574 0.283914
O 0.961282 -0.258574 1.727311
O 1.308935 -1.237439 -0.646319
O 1.387064 1.442869 -0.109282
H 2.059871 1.481110 -1.063952
9
Time step 2399
C -1.014339 0.083460 -0.213723
F -0.839421 0.215222 -1.511270
F -1.715986 1.002293 0.332230
F -1.463796 -1.136164 0.074502
S 0.873272 -0.098945 0.283824
O 0.961147 -0.258790 1.727474
O 1.310660 -1.238621 -0.646162
O 1.388127 1.442628 -0.109620
H 2.053822 1.481097 -1.059159
9
Time step 2400
C -1.015331 0.082562 -0.215107
F -0.839674 0.215616 -1.511830
F -1.717163 1.003286 0.333358
F -1.464461 -1.136663 0.074717
S 0.873752 -0.098322 0.283730
O 0.961015 -0.259003 1.727638
O 1.312384 -1.239785 -0.645993
O 1.389205 1.442383 -0.109979
H 2.047520 1.481028 -1.054017
9
Time step 2401
C -1.016295 0.081650 -0.216487
F -0.839933 0.216011 -1.512396
F -1.718344 1.004285 0.334488
F -1.465130 -1.137161 0.074930
S 0.874229 -0.097706 0.283629
O 0.960885 -0.259215 1.727804
O 1.314106 -1.240929 -0.645813
O 1.390298 1.442134 -0.110357
H 2.040974 1.480906 -1.048536
9
Time step 2402
C -1.017233 0.080723 -0.217862
F -0.840198 0.216409 -1.512969
F -1.719527 1.005288 0.335620
F -1.465803 -1.137659 0.075142
S 0.874705 -0.097095 0.283524
O 0.960757 -0.259425 1.727971
O 1.315826 -1.242054 -0.645621
O 1.391405 1.441882 -0.110756
H 2.034192 1.480730 -1.042726
9
Time step 2403
C -1.018143 0.079781 -0.219232
F -0.840468 0.216809 -1.513549
F -1.720713 1.006295 0.336754
F -1.466479 -1.138155 0.075353
S 0.875178 -0.096491 0.283414
O 0.960631 -0.259633 1.728140
O 1.317543 -1.243159 -0.645418
O 1.392527 1.441626 -0.111175
H 2.027181 1.480503 -1.036594
9
Time step 2404
C -1.019027 0.078822 -0.220599
F -0.840744 0.217211 -1.514135
F -1.721902 1.007307 0.337890
F -1.467159 -1.138650 0.075563
S 0.875649 -0.095893 0.283299
O 0.960507 -0.259841 1.728309
O 1.319257 -1.244243 -0.645204
O 1.393663 1.441368 -0.111613
H 2.019948 1.480225 -1.030152
9
Time step 2405
C -1.019886 0.077847 -0.221962
F -0.841026 0.217617 -1.514726
F -1.723092 1.008322 0.339027
F -1.467843 -1.139143 0.075774
S 0.876117 -0.095302 0.283180
O 0.960384 -0.260047 1.728479
O 1.320968 -1.245308 -0.644979
O 1.394812 1.441107 -0.112070
H 2.012501 1.479899 -1.023408
9
Time step 2406
C -1.020721 0.076856 -0.223323
F -0.841314 0.218025 -1.515323
F -1.724284 1.009341 0.340164
F -1.468529 -1.139635 0.075985
S 0.876584 -0.094719 0.283058
O 0.960262 -0.260251 1.728648
O 1.322676 -1.246351 -0.644744
O 1.395974 1.440845 -0.112546
H 2.004847 1.479524 -1.016374
9
Time step 2407
C -1.021535 0.075853 -0.224683
F -0.841609 0.218436 -1.515925
F -1.725476 1.010363 0.341302
F -1.469218 -1.140126 0.076196
S 0.877049 -0.094144 0.282933
O 0.960141 -0.260453 1.728817
O 1.324380 -1.247373 -0.644498
O 1.397149 1.440581 -0.113038
H 1.996996 1.479100 -1.009066
9
Time step 2408
C -1.022326 0.074840 -0.226042
F -0.841909 0.218850 -1.516532
F -1.726670 1.011388 0.342440
F -1.469910 -1.140617 0.076409
S 0.877513 -0.093579 0.282804
O 0.960023 -0.260652 1.728985
O 1.326083 -1.248373 -0.644241
O 1.398337 1.440315 -0.113545
H 1.988961 1.478629 -1.001501
9
Time step 2409
C -1.023096 0.073819 -0.227398
F -0.842215 0.219265 -1.517143
F -1.727865 1.012415 0.343577
F -1.470605 -1.141108 0.076622
S 0.877974 -0.093024 0.282672
O 0.959906 -0.260848 1.729151
O 1.327782 -1.249352 -0.643974
O 1.399535 1.440048 -0.114066
H 1.980754 1.478110 -0.993702
9
Time step 2410
C -1.023844 0.072790 -0.228750
F -0.842526 0.219682 -1.517760
F -1.729061 1.013444 0.344715
F -1.471304 -1.141599 0.076835
S 0.878433 -0.092477 0.282535
O 0.959791 -0.261041 1.729316
O 1.329478 -1.250309 -0.643695
O 1.400744 1.439779 -0.114598
H 1.972393 1.477543 -0.985692
9
Time step 2411
C -1.024567 0.071756 -0.230096
F -0.842843 0.220100 -1.518383
F -1.730258 1.014475 0.345852
F -1.472007 -1.142091 0.077047
S 0.878889 -0.091939 0.282395
O 0.959678 -0.261231 1.729479
O 1.331171 -1.251245 -0.643405
O 1.401962 1.439508 -0.115141
H 1.963898 1.476931 -0.977499
9
Time step 2412
C -1.025264 0.070715 -0.231433
F -0.843166 0.220520 -1.519012
F -1.731456 1.015505 0.346989
F -1.472714 -1.142581 0.077260
S 0.879344 -0.091410 0.282251
O 0.959568 -0.261419 1.729639
O 1.332861 -1.252159 -0.643103
O 1.403186 1.439235 -0.115693
H 1.955290 1.476276 -0.969154
9
Time step 2413
C -1.025936 0.069668 -0.232761
F -0.843495 0.220942 -1.519649
F -1.732654 1.016536 0.348124
F -1.473427 -1.143072 0.077472
S 0.879796 -0.090890 0.282103
O 0.959461 -0.261605 1.729797
O 1.334547 -1.253053 -0.642788
O 1.404417 1.438960 -0.116250
H 1.946595 1.475580 -0.960689
9
Time step 2414
C -1.026582 0.068615 -0.234077
F -0.843832 0.221367 -1.520293
F -1.733853 1.017566 0.349257
F -1.474144 -1.143561 0.077682
S 0.880246 -0.090379 0.281951
O 0.959356 -0.261787 1.729953
O 1.336230 -1.253924 -0.642461
O 1.405651 1.438682 -0.116812
H 1.937839 1.474848 -0.952141
9
Time step 2415
C -1.027204 0.067555 -0.235383
F -0.844177 0.221795 -1.520944
F -1.735051 1.018595 0.350387
F -1.474866 -1.144049 0.077891
S 0.880695 -0.089877 0.281796
O 0.959255 -0.261967 1.730105
O 1.337909 -1.254774 -0.642120
O 1.406886 1.438401 -0.117375
H 1.929052 1.474082 -0.943551
9
Time step 2416
C -1.027805 0.066490 -0.236676
F -0.844529 0.222225 -1.521601
F -1.736249 1.019623 0.351515
F -1.475591 -1.144536 0.078099
S 0.881142 -0.089385 0.281637
O 0.959156 -0.262144 1.730255
O 1.339585 -1.255602 -0.641766
O 1.408121 1.438117 -0.117937
H 1.920266 1.473284 -0.934963
9
Time step 2417
C -1.028384 0.065419 -0.237958
F -0.844889 0.222658 -1.522264
F -1.737444 1.020650 0.352639
F -1.476320 -1.145021 0.078305
S 0.881587 -0.088903 0.281474
O 0.959061 -0.262316 1.730402
O 1.341258 -1.256407 -0.641399
O 1.409353 1.437829 -0.118494
H 1.911515 1.472458 -0.926428
9
Time step 2418
C -1.028944 0.064341 -0.239227
F -0.845256 0.223093 -1.522934
F -1.738638 1.021676 0.353760
F -1.477051 -1.145504 0.078508
S 0.882030 -0.088430 0.281307
O 0.958969 -0.262485 1.730546
O 1.342928 -1.257191 -0.641019
O 1.410580 1.437538 -0.119042
H 1.902835 1.471605 -0.918001
9
Time step 2419
C -1.029484 0.063257 -0.240482
F -0.845630 0.223530 -1.523610
F -1.739829 1.022701 0.354879
F -1.477785 -1.145984 0.078710
S 0.882470 -0.087968 0.281136
O 0.958879 -0.262650 1.730687
O 1.344595 -1.257954 -0.640626
O 1.411799 1.437244 -0.119578
H 1.894263 1.470727 -0.909743
9
Time step 2420
C -1.030004 0.062166 -0.241722
F -0.846011 0.223971 -1.524294
F -1.741018 1.023724 0.355995
F -1.478522 -1.146461 0.078910
S 0.882907 -0.087516 0.280960
O 0.958793 -0.262811 1.730826
O 1.346259 -1.258694 -0.640220
O 1.413009 1.436946 -0.120097
H 1.885839 1.469829 -0.901719
9
Time step 2421
C -1.030501 0.061069 -0.242945
F -0.846398 0.224414 -1.524985
F -1.742205 1.024743 0.357108
F -1.479262 -1.146934 0.079108
S 0.883340 -0.087075 0.280780
O 0.958709 -0.262968 1.730961
O 1.347920 -1.259413 -0.639800
O 1.414207 1.436645 -0.120597
H 1.877601 1.468913 -0.894000
9
Time step 2422
C -1.030976 0.059968 -0.244152
F -0.846794 0.224859 -1.525683
F -1.743389 1.025760 0.358218
F -1.480007 -1.147406 0.079304
S 0.883771 -0.086644 0.280596
O 0.958626 -0.263122 1.731093
O 1.349578 -1.260108 -0.639366
O 1.415391 1.436341 -0.121072
H 1.869590 1.467985 -0.886659
9
Time step 2423
C -1.031426 0.058864 -0.245343
F -0.847197 0.225307 -1.526388
F -1.744571 1.026772 0.359324
F -1.480755 -1.147875 0.079497
S 0.884198 -0.086224 0.280407
O 0.958546 -0.263271 1.731222
O 1.351233 -1.260781 -0.638919
O 1.416560 1.436032 -0.121518
H 1.861847 1.467049 -0.879773
9
Time step 2424
C -1.031854 0.057758 -0.246518
F -0.847607 0.225757 -1.527099
F -1.745750 1.027780 0.360426
F -1.481509 -1.148342 0.079687
S 0.884624 -0.085814 0.280214
O 0.958468 -0.263417 1.731347
O 1.352884 -1.261429 -0.638457
O 1.417710 1.435720 -0.121930
H 1.854414 1.466110 -0.873421
9
Time step 2425
C -1.032260 0.056651 -0.247679
F -0.848026 0.226209 -1.527813
F -1.746927 1.028783 0.361525
F -1.482267 -1.148807 0.079875
S 0.885047 -0.085416 0.280017
O 0.958391 -0.263558 1.731470
O 1.354530 -1.262053 -0.637981
O 1.418840 1.435404 -0.122305
H 1.847333 1.465171 -0.867681
9
Time step 2426
C -1.032646 0.055543 -0.248826
F -0.848451 0.226661 -1.528530
F -1.748100 1.029781 0.362619
F -1.483029 -1.149269 0.080059
S 0.885468 -0.085028 0.279817
O 0.958316 -0.263696 1.731589
O 1.356172 -1.262652 -0.637492
O 1.419947 1.435082 -0.122636
H 1.840642 1.464235 -0.862628
9
Time step 2427
C -1.033014 0.054434 -0.249959
F -0.848882 0.227114 -1.529252
F -1.749270 1.030774 0.363708
F -1.483794 -1.149729 0.080241
S 0.885886 -0.084652 0.279612
O 0.958243 -0.263830 1.731705
O 1.357808 -1.263226 -0.636990
O 1.421029 1.434756 -0.122919
H 1.834381 1.463304 -0.858337
9
Time step 2428
C -1.033367 0.053324 -0.251076
F -0.849320 0.227569 -1.529977
F -1.750435 1.031762 0.364793
F -1.484561 -1.150186 0.080420
S 0.886303 -0.084285 0.279404
O 0.958171 -0.263962 1.731816
O 1.359439 -1.263775 -0.636474
O 1.422083 1.434425 -0.123151
H 1.828582 1.462379 -0.854874
9
Time step 2429
C -1.033707 0.052215 -0.252176
F -0.849764 0.228025 -1.530707
F -1.751596 1.032743 0.365872
F -1.485331 -1.150640 0.080597
S 0.886718 -0.083930 0.279193
O 0.958101 -0.264090 1.731924
O 1.361064 -1.264299 -0.635945
O 1.423107 1.434089 -0.123327
H 1.823273 1.461458 -0.852299
9
Time step 2430
C -1.034032 0.051107 -0.253259
F -0.850214 0.228483 -1.531443
F -1.752750 1.033718 0.366946
F -1.486102 -1.151091 0.080771
S 0.887130 -0.083585 0.278980
O 0.958032 -0.264216 1.732028
O 1.362684 -1.264799 -0.635403
O 1.424100 1.433749 -0.123445
H 1.818477 1.460541 -0.850664
9
Time step 2431
C -1.034344 0.050003 -0.254325
F -0.850671 0.228943 -1.532185
F -1.753899 1.034686 0.368013
F -1.486874 -1.151541 0.080944
S 0.887540 -0.083251 0.278765
O 0.957966 -0.264339 1.732127
O 1.364298 -1.265274 -0.634848
O 1.425060 1.433404 -0.123502
H 1.814210 1.459626 -0.850011
9
Time step 2432
C -1.034641 0.048906 -0.255373
F -0.851136 0.229405 -1.532933
F -1.755042 1.035646 0.369073
F -1.487649 -1.151990 0.081114
S 0.887948 -0.082929 0.278548
O 0.957902 -0.264459 1.732221
O 1.365908 -1.265726 -0.634280
O 1.425988 1.433056 -0.123496
H 1.810483 1.458712 -0.850373
9
Time step 2433
C -1.034922 0.047816 -0.256404
F -0.851608 0.229869 -1.533687
F -1.756179 1.036598 0.370127
F -1.488427 -1.152438 0.081282
S 0.888353 -0.082618 0.278330
O 0.957840 -0.264575 1.732312
O 1.367512 -1.266153 -0.633700
O 1.426882 1.432703 -0.123425
H 1.807301 1.457799 -0.851770
9
Time step 2434
C -1.035185 0.046734 -0.257418
F -0.852088 0.230334 -1.534447
F -1.757311 1.037543 0.371174
F -1.489209 -1.152884 0.081448
S 0.888756 -0.082319 0.278111
O 0.957781 -0.264688 1.732398
O 1.369112 -1.266557 -0.633107
O 1.427742 1.432347 -0.123289
H 1.804662 1.456889 -0.854210
9
Time step 2435
C -1.035431 0.045658 -0.258413
F -0.852576 0.230800 -1.535212
F -1.758437 1.038479 0.372215
F -1.489994 -1.153329 0.081612
S 0.889157 -0.082032 0.277889
O 0.957724 -0.264796 1.732480
O 1.370707 -1.266936 -0.632504
O 1.428569 1.431987 -0.123087
H 1.802557 1.455984 -0.857691
9
Time step 2436
C -1.035660 0.044588 -0.259387
F -0.853070 0.231267 -1.535984
F -1.759558 1.039408 0.373249
F -1.490783 -1.153771 0.081773
S 0.889556 -0.081757 0.277665
O 0.957670 -0.264900 1.732558
O 1.372297 -1.267292 -0.631888
O 1.429363 1.431624 -0.122821
H 1.800972 1.455085 -0.862195
9
Time step 2437
C -1.035871 0.043523 -0.260339
F -0.853572 0.231735 -1.536761
F -1.760674 1.040329 0.374275
F -1.491575 -1.154210 0.081931
S 0.889952 -0.081494 0.277439
O 0.957617 -0.265000 1.732632
O 1.373883 -1.267624 -0.631262
O 1.430127 1.431257 -0.122492
H 1.799887 1.454196 -0.867691
9
Time step 2438
C -1.036065 0.042462 -0.261268
F -0.854080 0.232205 -1.537545
F -1.761784 1.041242 0.375294
F -1.492371 -1.154646 0.082087
S 0.890346 -0.081242 0.277210
O 0.957566 -0.265096 1.732701
O 1.375464 -1.267933 -0.630623
O 1.430860 1.430886 -0.122103
H 1.799274 1.453317 -0.874139
9
Time step 2439
C -1.036244 0.041407 -0.262172
F -0.854596 0.232676 -1.538334
F -1.762888 1.042147 0.376304
F -1.493169 -1.155079 0.082239
S 0.890739 -0.081004 0.276980
O 0.957517 -0.265187 1.732764
O 1.377040 -1.268218 -0.629974
O 1.431566 1.430511 -0.121658
H 1.799101 1.452449 -0.881487
9
Time step 2440
C -1.036408 0.040357 -0.263054
F -0.855118 0.233150 -1.539129
F -1.763986 1.043044 0.377307
F -1.493969 -1.155510 0.082389
S 0.891129 -0.080777 0.276748
O 0.957468 -0.265274 1.732822
O 1.378612 -1.268479 -0.629312
O 1.432247 1.430131 -0.121161
H 1.799332 1.451590 -0.889673
9
Time step 2441
C -1.036556 0.039315 -0.263914
F -0.855649 0.233624 -1.539929
F -1.765078 1.043933 0.378301
F -1.494772 -1.155938 0.082536
S 0.891517 -0.080563 0.276515
O 0.957421 -0.265356 1.732873
O 1.380179 -1.268717 -0.628639
O 1.432906 1.429747 -0.120615
H 1.799931 1.450740 -0.898632
9
Time step 2442
C -1.036690 0.038280 -0.264752
F -0.856187 0.234100 -1.540734
F -1.766163 1.044813 0.379289
F -1.495576 -1.156365 0.082679
S 0.891902 -0.080361 0.276281
O 0.957376 -0.265433 1.732918
O 1.381740 -1.268930 -0.627953
O 1.433544 1.429358 -0.120026
H 1.800857 1.449895 -0.908291
9
Time step 2443
C -1.036807 0.037254 -0.265570
F -0.856732 0.234577 -1.541545
F -1.767242 1.045684 0.380269
F -1.496383 -1.156788 0.082819
S 0.892285 -0.080171 0.276045
O 0.957332 -0.265505 1.732955
O 1.383297 -1.269120 -0.627256
O 1.434165 1.428966 -0.119397
H 1.802071 1.449055 -0.918577
9
Time step 2444
C -1.036907 0.036234 -0.266365
F -0.857285 0.235055 -1.542361
F -1.768315 1.046546 0.381243
F -1.497192 -1.157208 0.082955
S 0.892665 -0.079993 0.275809
O 0.957289 -0.265571 1.732985
O 1.384850 -1.269286 -0.626546
O 1.434771 1.428568 -0.118734
H 1.803536 1.448219 -0.929416
9
Time step 2445
C -1.036991 0.035221 -0.267139
F -0.857845 0.235533 -1.543183
F -1.769381 1.047398 0.382210
F -1.498005 -1.157624 0.083087
S 0.893043 -0.079828 0.275571
O 0.957249 -0.265631 1.733009
O 1.386397 -1.269428 -0.625823
O 1.435363 1.428167 -0.118040
H 1.805214 1.447384 -0.940733
9
Time step 2446
C -1.037058 0.034213 -0.267889
F -0.858414 0.236012 -1.544009
F -1.770439 1.048241 0.383169
F -1.498821 -1.158034 0.083215
S 0.893418 -0.079676 0.275331
O 0.957209 -0.265686 1.733026
O 1.387939 -1.269546 -0.625088
O 1.435945 1.427762 -0.117320
H 1.807072 1.446552 -0.952457
9
Time step 2447
C -1.037108 0.033211 -0.268616
F -0.858990 0.236492 -1.544840
F -1.771491 1.049073 0.384120
F -1.499639 -1.158441 0.083339
S 0.893791 -0.079537 0.275089
O 0.957171 -0.265735 1.733037
O 1.389476 -1.269639 -0.624340
O 1.436518 1.427354 -0.116579
H 1.809077 1.445718 -0.964517
9
Time step 2448
C -1.037143 0.032218 -0.269320
F -0.859575 0.236973 -1.545675
F -1.772536 1.049895 0.385063
F -1.500461 -1.158843 0.083458
S 0.894161 -0.079411 0.274844
O 0.957135 -0.265779 1.733041
O 1.391008 -1.269707 -0.623579
O 1.437085 1.426943 -0.115822
H 1.811199 1.444882 -0.976843
9
Time step 2449
C -1.037163 0.031233 -0.270002
F -0.860168 0.237454 -1.546513
F -1.773573 1.050707 0.385997
F -1.501284 -1.159241 0.083573
S 0.894529 -0.079298 0.274597
O 0.957100 -0.265818 1.733040
O 1.392534 -1.269750 -0.622805
O 1.437648 1.426528 -0.115051
H 1.813409 1.444037 -0.989367
9
Time step 2450
C -1.037168 0.030258 -0.270661
F -0.860768 0.237935 -1.547354
F -1.774602 1.051508 0.386923
F -1.502110 -1.159636 0.083685
S 0.894895 -0.079197 0.274347
O 0.957067 -0.265852 1.733033
O 1.394054 -1.269768 -0.622017
O 1.438208 1.426111 -0.114273
H 1.815679 1.443180 -1.002024
9
Time step 2451
C -1.037159 0.029293 -0.271297
F -0.861377 0.238417 -1.548199
F -1.775624 1.052298 0.387839
F -1.502937 -1.160028 0.083793
S 0.895258 -0.079110 0.274095
O 0.957035 -0.265882 1.733020
O 1.395568 -1.269760 -0.621217
O 1.438768 1.425692 -0.113490
H 1.817984 1.442305 -1.014751
9
Time step 2452
C -1.037137 0.028338 -0.271910
F -0.861993 0.238899 -1.549047
F -1.776637 1.053076 0.388745
F -1.503767 -1.160417 0.083897
S 0.895620 -0.079034 0.273840
O 0.957004 -0.265908 1.733001
O 1.397075 -1.269726 -0.620403
O 1.439329 1.425271 -0.112706
H 1.820298 1.441408 -1.027489
9
Time step 2453
C -1.037103 0.027392 -0.272497
F -0.862617 0.239381 -1.549899
F -1.777642 1.053842 0.389642
F -1.504599 -1.160801 0.083997
S 0.895979 -0.078970 0.273583
O 0.956974 -0.265930 1.732976
O 1.398575 -1.269668 -0.619577
O 1.439893 1.424848 -0.111925
H 1.822599 1.440484 -1.040187
9
Time step 2454
C -1.037056 0.026455 -0.273059
F -0.863249 0.239865 -1.550755
F -1.778639 1.054595 0.390529
F -1.505433 -1.161181 0.084093
S 0.896336 -0.078918 0.273324
O 0.956946 -0.265949 1.732945
O 1.400068 -1.269584 -0.618738
O 1.440460 1.424424 -0.111149
H 1.824864 1.439534 -1.052797
9
Time step 2455
C -1.036997 0.025529 -0.273595
F -0.863888 0.240349 -1.551615
F -1.779626 1.055337 0.391405
F -1.506269 -1.161556 0.084185
S 0.896691 -0.078879 0.273063
O 0.956920 -0.265963 1.732908
O 1.401555 -1.269476 -0.617887
O 1.441031 1.423998 -0.110382
H 1.827075 1.438555 -1.065280
9
Time step 2456
C -1.036927 0.024613 -0.274108
F -0.864535 0.240834 -1.552477
F -1.780604 1.056066 0.392270
F -1.507107 -1.161928 0.084273
S 0.897044 -0.078852 0.272800
O 0.956895 -0.265974 1.732866
O 1.403036 -1.269341 -0.617023
O 1.441607 1.423571 -0.109626
H 1.829216 1.437549 -1.077602
9
Time step 2457
C -1.036844 0.023710 -0.274596
F -0.865190 0.241319 -1.553341
F -1.781572 1.056783 0.393125
F -1.507948 -1.162296 0.084356
S 0.897394 -0.078840 0.272536
O 0.956872 -0.265979 1.732818
O 1.404511 -1.269180 -0.616147
O 1.442189 1.423142 -0.108882
H 1.831273 1.436519 -1.089730
9
Time step 2458
C -1.036749 0.022821 -0.275063
F -0.865853 0.241803 -1.554208
F -1.782530 1.057488 0.393970
F -1.508791 -1.162660 0.084435
S 0.897742 -0.078841 0.272270
O 0.956851 -0.265981 1.732765
O 1.405981 -1.268993 -0.615259
O 1.442776 1.422711 -0.108153
H 1.833235 1.435464 -1.101636
9
Time step 2459
C -1.036641 0.021949 -0.275506
F -0.866524 0.242286 -1.555077
F -1.783479 1.058181 0.394805
F -1.509637 -1.163022 0.084510
S 0.898088 -0.078856 0.272002
O 0.956832 -0.265977 1.732706
O 1.407446 -1.268779 -0.614360
O 1.443370 1.422280 -0.107440
H 1.835094 1.434389 -1.113291
9
Time step 2460
C -1.036520 0.021092 -0.275925
F -0.867202 0.242769 -1.555950
F -1.784418 1.058862 0.395630
F -1.510487 -1.163381 0.084581
S 0.898432 -0.078884 0.271733
O 0.956815 -0.265970 1.732643
O 1.408904 -1.268540 -0.613448
O 1.443971 1.421847 -0.106746
H 1.836842 1.433293 -1.124667
9
Time step 2461
C -1.036387 0.020253 -0.276321
F -0.867887 0.243251 -1.556829
F -1.785348 1.059529 0.396445
F -1.511341 -1.163738 0.084649
S 0.898774 -0.078927 0.271463
O 0.956799 -0.265959 1.732573
O 1.410356 -1.268275 -0.612525
O 1.444580 1.421414 -0.106072
H 1.838473 1.432179 -1.135736
9
Time step 2462
C -1.036242 0.019430 -0.276691
F -0.868578 0.243732 -1.557711
F -1.786269 1.060184 0.397251
F -1.512197 -1.164092 0.084714
S 0.899115 -0.078983 0.271192
O 0.956785 -0.265943 1.732497
O 1.411802 -1.267986 -0.611590
O 1.445197 1.420981 -0.105420
H 1.839980 1.431047 -1.146475
9
Time step 2463
C -1.036087 0.018623 -0.277038
F -0.869276 0.244215 -1.558598
F -1.787180 1.060825 0.398046
F -1.513056 -1.164443 0.084777
S 0.899454 -0.079053 0.270921
O 0.956772 -0.265923 1.732414
O 1.413242 -1.267672 -0.610644
O 1.445822 1.420548 -0.104791
H 1.841359 1.429899 -1.156860
9
Time step 2464
C -1.035923 0.017831 -0.277363
F -0.869981 0.244697 -1.559488
F -1.788082 1.061453 0.398831
F -1.513915 -1.164791 0.084836
S 0.899791 -0.079137 0.270649
O 0.956760 -0.265898 1.732324
O 1.414674 -1.267334 -0.609687
O 1.446456 1.420114 -0.104187
H 1.842603 1.428733 -1.166874
9
Time step 2465
C -1.035750 0.017055 -0.277668
F -0.870693 0.245181 -1.560378
F -1.788975 1.062068 0.399606
F -1.514775 -1.165135 0.084892
S 0.900126 -0.079235 0.270377
O 0.956749 -0.265867 1.732226
O 1.416099 -1.266974 -0.608719
O 1.447100 1.419680 -0.103607
H 1.843709 1.427550 -1.176503
9
Time step 2466
C -1.035567 0.016293 -0.277956
F -0.871413 0.245664 -1.561268
F -1.789859 1.062670 0.400371
F -1.515636 -1.165476 0.084944
S 0.900460 -0.079346 0.270106
O 0.956739 -0.265831 1.732120
O 1.417518 -1.266591 -0.607741
O 1.447752 1.419245 -0.103053
H 1.844671 1.426348 -1.185739
9
Time step 2467
C -1.035374 0.015544 -0.278224
F -0.872140 0.246147 -1.562157
F -1.790733 1.063260 0.401126
F -1.516496 -1.165812 0.084991
S 0.900791 -0.079469 0.269836
O 0.956730 -0.265789 1.732007
O 1.418930 -1.266185 -0.606753
O 1.448415 1.418809 -0.102525
H 1.845485 1.425128 -1.194572
9
Time step 2468
C -1.035169 0.014807 -0.278473
F -0.872875 0.246630 -1.563045
F -1.791598 1.063837 0.401871
F -1.517357 -1.166143 0.085032
S 0.901120 -0.079604 0.269566
O 0.956723 -0.265742 1.731885
O 1.420335 -1.265758 -0.605756
O 1.449086 1.418371 -0.102023
H 1.846150 1.423887 -1.202999
9
Time step 2469
C -1.034952 0.014080 -0.278699
F -0.873617 0.247112 -1.563934
F -1.792454 1.064401 0.402606
F -1.518219 -1.166469 0.085068
S 0.901447 -0.079751 0.269297
O 0.956717 -0.265690 1.731755
O 1.421734 -1.265310 -0.604748
O 1.449768 1.417930 -0.101547
H 1.846661 1.422625 -1.211015
9
Time step 2470
C -1.034723 0.013362 -0.278899
F -0.874368 0.247593 -1.564825
F -1.793300 1.064953 0.403330
F -1.519083 -1.166788 0.085098
S 0.901771 -0.079908 0.269028
O 0.956712 -0.265632 1.731617
O 1.423127 -1.264839 -0.603731
O 1.450460 1.417487 -0.101097
H 1.847017 1.421340 -1.218614
9
Time step 2471
C -1.034481 0.012653 -0.279071
F -0.875126 0.248073 -1.565718
F -1.794137 1.065492 0.404044
F -1.519949 -1.167102 0.085121
S 0.902093 -0.080075 0.268759
O 0.956708 -0.265570 1.731471
O 1.424514 -1.264346 -0.602705
O 1.451161 1.417042 -0.100673
H 1.847216 1.420034 -1.225792
9
Time step 2472
C -1.034228 0.011955 -0.279214
F -0.875892 0.248553 -1.566614
F -1.794963 1.066018 0.404746
F -1.520817 -1.167409 0.085140
S 0.902414 -0.080253 0.268489
O 0.956705 -0.265503 1.731316
O 1.425894 -1.263829 -0.601669
O 1.451874 1.416594 -0.100276
H 1.847256 1.418705 -1.232543
9
Time step 2473
C -1.033964 0.011269 -0.279330
F -0.876666 0.249032 -1.567512
F -1.795779 1.066530 0.405438
F -1.521685 -1.167711 0.085153
S 0.902732 -0.080443 0.268220
O 0.956702 -0.265430 1.731154
O 1.427268 -1.263290 -0.600623
O 1.452597 1.416142 -0.099905
H 1.847137 1.417355 -1.238860
9
Time step 2474
C -1.033689 0.010597 -0.279421
F -0.877448 0.249510 -1.568412
F -1.796585 1.067028 0.406118
F -1.522555 -1.168008 0.085161
S 0.903047 -0.080645 0.267951
O 0.956698 -0.265352 1.730983
O 1.428636 -1.262726 -0.599569
O 1.453332 1.415689 -0.099561
H 1.846858 1.415985 -1.244738
9
Time step 2475
C -1.033404 0.009940 -0.279489
F -0.878239 0.249987 -1.569311
F -1.797379 1.067512 0.406787
F -1.523425 -1.168300 0.085164
S 0.903360 -0.080859 0.267681
O 0.956695 -0.265268 1.730805
O 1.429998 -1.262139 -0.598504
O 1.454078 1.415232 -0.099245
H 1.846418 1.414597 -1.250172
9
Time step 2476
C -1.033109 0.009299 -0.279535
F -0.879038 0.250462 -1.570210
F -1.798163 1.067981 0.407445
F -1.524296 -1.168588 0.085162
S 0.903671 -0.081086 0.267410
O 0.956691 -0.265179 1.730619
O 1.431354 -1.261528 -0.597430
O 1.454835 1.414772 -0.098956
H 1.845818 1.413193 -1.255158
9
Time step 2477
C -1.032803 0.008674 -0.279559
F -0.879845 0.250937 -1.571107
F -1.798937 1.068437 0.408092
F -1.525169 -1.168870 0.085156
S 0.903980 -0.081325 0.267138
O 0.956688 -0.265083 1.730428
O 1.432705 -1.260895 -0.596346
O 1.455602 1.414310 -0.098695
H 1.845058 1.411776 -1.259691
9
Time step 2478
C -1.032486 0.008065 -0.279561
F -0.880660 0.251410 -1.572004
F -1.799700 1.068878 0.408728
F -1.526044 -1.169147 0.085144
S 0.904287 -0.081576 0.266864
O 0.956684 -0.264982 1.730230
O 1.434051 -1.260238 -0.595252
O 1.456380 1.413844 -0.098463
H 1.844139 1.410350 -1.263768
9
Time step 2479
C -1.032160 0.007474 -0.279540
F -0.881483 0.251881 -1.572900
F -1.800452 1.069305 0.409353
F -1.526920 -1.169420 0.085128
S 0.904593 -0.081839 0.266589
O 0.956680 -0.264875 1.730026
O 1.435392 -1.259559 -0.594148
O 1.457167 1.413374 -0.098259
H 1.843062 1.408918 -1.267387
9
Time step 2480
C -1.031825 0.006902 -0.279496
F -0.882314 0.252352 -1.573795
F -1.801193 1.069717 0.409967
F -1.527798 -1.169688 0.085106
S 0.904897 -0.082114 0.266312
O 0.956677 -0.264763 1.729817
O 1.436728 -1.258858 -0.593033
O 1.457963 1.412902 -0.098085
H 1.841829 1.407482 -1.270546
9
Time step 2481
C -1.031482 0.006349 -0.279429
F -0.883152 0.252821 -1.574688
F -1.801923 1.070114 0.410569
F -1.528678 -1.169952 0.085078
S 0.905199 -0.082402 0.266033
O 0.956675 -0.264646 1.729602
O 1.438058 -1.258134 -0.591909
O 1.458768 1.412426 -0.097939
H 1.840440 1.406043 -1.273243
9
Time step 2482
C -1.031131 0.005817 -0.279340
F -0.883997 0.253288 -1.575581
F -1.802642 1.070497 0.411159
F -1.529559 -1.170213 0.085047
S 0.905500 -0.082702 0.265754
O 0.956675 -0.264524 1.729381
O 1.439381 -1.257387 -0.590775
O 1.459583 1.411947 -0.097823
H 1.838896 1.404604 -1.275476
9
Time step 2483
C -1.030772 0.005306 -0.279230
F -0.884849 0.253753 -1.576473
F -1.803350 1.070865 0.411738
F -1.530443 -1.170471 0.085010
S 0.905799 -0.083015 0.265474
O 0.956675 -0.264396 1.729155
O 1.440698 -1.256617 -0.589631
O 1.460406 1.411465 -0.097737
H 1.837201 1.403163 -1.277243
9
Time step 2484
C -1.030405 0.004817 -0.279102
F -0.885708 0.254217 -1.577363
F -1.804046 1.071217 0.412305
F -1.531327 -1.170725 0.084970
S 0.906097 -0.083342 0.265194
O 0.956677 -0.264263 1.728922
O 1.442008 -1.255824 -0.588477
O 1.461238 1.410981 -0.097681
H 1.835356 1.401721 -1.278540
9
Time step 2485
C -1.030031 0.004348 -0.278956
F -0.886573 0.254680 -1.578252
F -1.804732 1.071555 0.412862
F -1.532213 -1.170975 0.084926
S 0.906393 -0.083681 0.264914
O 0.956681 -0.264125 1.728683
O 1.443310 -1.255007 -0.587315
O 1.462081 1.410495 -0.097656
H 1.833364 1.400277 -1.279367
9
Time step 2486
C -1.029648 0.003899 -0.278793
F -0.887447 0.255140 -1.579139
F -1.805406 1.071877 0.413407
F -1.533100 -1.171221 0.084878
S 0.906686 -0.084034 0.264635
O 0.956685 -0.263982 1.728438
O 1.444606 -1.254166 -0.586143
O 1.462933 1.410008 -0.097661
H 1.831227 1.398829 -1.279721
9
Time step 2487
C -1.029258 0.003467 -0.278611
F -0.888328 0.255599 -1.580025
F -1.806069 1.072184 0.413940
F -1.533986 -1.171462 0.084826
S 0.906978 -0.084400 0.264357
O 0.956691 -0.263834 1.728185
O 1.445893 -1.253303 -0.584963
O 1.463795 1.409520 -0.097697
H 1.828948 1.397377 -1.279604
9
Time step 2488
C -1.028861 0.003053 -0.278410
F -0.889216 0.256057 -1.580908
F -1.806720 1.072476 0.414463
F -1.534872 -1.171698 0.084769
S 0.907266 -0.084779 0.264080
O 0.956697 -0.263681 1.727926
O 1.447174 -1.252418 -0.583774
O 1.464667 1.409031 -0.097764
H 1.826528 1.395921 -1.279018
9
Time step 2489
C -1.028460 0.002654 -0.278189
F -0.890111 0.256513 -1.581788
F -1.807359 1.072754 0.414973
F -1.535758 -1.171928 0.084706
S 0.907552 -0.085169 0.263804
O 0.956703 -0.263523 1.727660
O 1.448447 -1.251512 -0.582577
O 1.465550 1.408541 -0.097861
H 1.823968 1.394459 -1.277966
9
Time step 2490
C -1.028054 0.002270 -0.277948
F -0.891014 0.256967 -1.582664
F -1.807987 1.073017 0.415472
F -1.536642 -1.172152 0.084637
S 0.907836 -0.085570 0.263528
O 0.956711 -0.263361 1.727387
O 1.449714 -1.250587 -0.581373
O 1.466443 1.408051 -0.097988
H 1.821270 1.392991 -1.276452
9
Time step 2491
C -1.027644 0.001901 -0.277687
F -0.891922 0.257419 -1.583537
F -1.808603 1.073264 0.415960
F -1.537525 -1.172370 0.084562
S 0.908116 -0.085982 0.263255
O 0.956719 -0.263194 1.727106
O 1.450974 -1.249643 -0.580162
O 1.467345 1.407559 -0.098146
H 1.818434 1.391517 -1.274483
9
Time step 2492
C -1.027229 0.001545 -0.277406
F -0.892838 0.257870 -1.584406
F -1.809207 1.073497 0.416436
F -1.538408 -1.172582 0.084482
S 0.908394 -0.086403 0.262983
O 0.956728 -0.263021 1.726819
O 1.452228 -1.248680 -0.578944
O 1.468257 1.407065 -0.098333
H 1.815462 1.390037 -1.272062
9
Time step 2493
C -1.026811 0.001203 -0.277108
F -0.893759 0.258320 -1.585271
F -1.809800 1.073715 0.416900
F -1.539290 -1.172786 0.084395
S 0.908669 -0.086834 0.262714
O 0.956738 -0.262845 1.726524
O 1.453477 -1.247699 -0.577720
O 1.469177 1.406569 -0.098550
H 1.812356 1.388550 -1.269193
9
Time step 2494
C -1.026388 0.000874 -0.276793
F -0.894687 0.258769 -1.586133
F -1.810381 1.073917 0.417354
F -1.540173 -1.172983 0.084304
S 0.908941 -0.087274 0.262447
O 0.956748 -0.262664 1.726221
O 1.454720 -1.246700 -0.576490
O 1.470105 1.406071 -0.098796
H 1.809118 1.387058 -1.265877
9
Time step 2495
C -1.025960 0.000560 -0.276463
F -0.895622 0.259216 -1.586989
F -1.810949 1.074103 0.417797
F -1.541056 -1.173173 0.084207
S 0.909211 -0.087725 0.262183
O 0.956759 -0.262478 1.725911
O 1.455959 -1.245682 -0.575254
O 1.471042 1.405570 -0.099073
H 1.805750 1.385560 -1.262116
9
Time step 2496
C -1.025529 0.000263 -0.276121
F -0.896564 0.259661 -1.587841
F -1.811504 1.074275 0.418230
F -1.541939 -1.173356 0.084107
S 0.909479 -0.088185 0.261921
O 0.956769 -0.262288 1.725593
O 1.457194 -1.244645 -0.574012
O 1.471985 1.405065 -0.099378
H 1.802256 1.384059 -1.257909
9
Time step 2497
C -1.025093 -0.000017 -0.275766
F -0.897512 0.260103 -1.588688
F -1.812048 1.074431 0.418652
F -1.542821 -1.173532 0.084001
S 0.909746 -0.088655 0.261663
O 0.956779 -0.262093 1.725266
O 1.458422 -1.243589 -0.572764
O 1.472935 1.404558 -0.099713
H 1.798639 1.382557 -1.253258
9
Time step 2498
C -1.024653 -0.000278 -0.275399
F -0.898468 0.260542 -1.589529
F -1.812579 1.074573 0.419064
F -1.543703 -1.173703 0.083891
S 0.910011 -0.089135 0.261407
O 0.956789 -0.261894 1.724932
O 1.459645 -1.242514 -0.571510
O 1.473891 1.404047 -0.100077
H 1.794901 1.381057 -1.248165
9
Time step 2499
C -1.024208 -0.000522 -0.275017
F -0.899430 0.260978 -1.590365
F -1.813098 1.074700 0.419465
F -1.544584 -1.173867 0.083776
S 0.910274 -0.089625 0.261153
O 0.956798 -0.261690 1.724589
O 1.460862 -1.241420 -0.570250
O 1.474853 1.403532 -0.100470
H 1.791045 1.379560 -1.242633
9
Time step 2500
C -1.023757 -0.000748 -0.274618
F -0.900400 0.261411 -1.591197
F -1.813606 1.074814 0.419856
F -1.545464 -1.174026 0.083655
S 0.910537 -0.090126 0.260902
O 0.956806 -0.261481 1.724239
O 1.462072 -1.240307 -0.568984
O 1.475821 1.403014 -0.100890
H 1.787073 1.378069 -1.236668
9
Time step 2501
C -1.023299 -0.000959 -0.274200
F -0.901377 0.261841 -1.592025
F -1.814102 1.074913 0.420234
F -1.546344 -1.174178 0.083528
S 0.910799 -0.090636 0.260654
O 0.956814 -0.261267 1.723880
O 1.463276 -1.239176 -0.567713
O 1.476795 1.402492 -0.101338
H 1.782989 1.376586 -1.230276
9
Time step 2502
C -1.022834 -0.001155 -0.273760
F -0.902362 0.262270 -1.592849
F -1.814586 1.074998 0.420600
F -1.547224 -1.174324 0.083395
S 0.911060 -0.091156 0.260408
O 0.956822 -0.261048 1.723514
O 1.464473 -1.238026 -0.566436
O 1.477773 1.401966 -0.101814
H 1.778796 1.375111 -1.223465
9
Time step 2503
C -1.022364 -0.001336 -0.273299
F -0.903354 0.262698 -1.593670
F -1.815057 1.075068 0.420953
F -1.548103 -1.174462 0.083256
S 0.911320 -0.091686 0.260165
O 0.956829 -0.260825 1.723141
O 1.465665 -1.236858 -0.565155
O 1.478756 1.401435 -0.102317
H 1.774496 1.373645 -1.216241
9
Time step 2504
C -1.021889 -0.001499 -0.272818
F -0.904354 0.263123 -1.594485
F -1.815516 1.075122 0.421293
F -1.548983 -1.174594 0.083112
S 0.911578 -0.092226 0.259924
O 0.956837 -0.260596 1.722762
O 1.466851 -1.235671 -0.563870
O 1.479745 1.400900 -0.102847
H 1.770095 1.372190 -1.208613
9
Time step 2505
C -1.021413 -0.001643 -0.272319
F -0.905360 0.263545 -1.595295
F -1.815962 1.075160 0.421620
F -1.549861 -1.174720 0.082962
S 0.911833 -0.092775 0.259687
O 0.956845 -0.260363 1.722375
O 1.468032 -1.234466 -0.562580
O 1.480739 1.400360 -0.103403
H 1.765596 1.370748 -1.200591
9
Time step 2506
C -1.020936 -0.001764 -0.271807
F -0.906373 0.263964 -1.596097
F -1.816394 1.075182 0.421934
F -1.550738 -1.174841 0.082806
S 0.912087 -0.093333 0.259452
O 0.956853 -0.260124 1.721982
O 1.469208 -1.233243 -0.561287
O 1.481738 1.399815 -0.103984
H 1.761004 1.369321 -1.192182
9
Time step 2507
C -1.020458 -0.001862 -0.271282
F -0.907393 0.264379 -1.596891
F -1.816813 1.075187 0.422235
F -1.551615 -1.174956 0.082646
S 0.912338 -0.093902 0.259221
O 0.956862 -0.259881 1.721583
O 1.470378 -1.232002 -0.559990
O 1.482744 1.399267 -0.104591
H 1.756323 1.367911 -1.183401
9
Time step 2508
C -1.019979 -0.001938 -0.270747
F -0.908419 0.264790 -1.597677
F -1.817219 1.075176 0.422526
F -1.552490 -1.175065 0.082481
S 0.912586 -0.094479 0.258993
O 0.956871 -0.259632 1.721177
O 1.471543 -1.230744 -0.558690
O 1.483756 1.398713 -0.105221
H 1.751556 1.366522 -1.174262
9
Time step 2509
C -1.019498 -0.001992 -0.270201
F -0.909451 0.265199 -1.598456
F -1.817612 1.075148 0.422804
F -1.553365 -1.175169 0.082311
S 0.912831 -0.095065 0.258768
O 0.956881 -0.259378 1.720765
O 1.472703 -1.229470 -0.557386
O 1.484773 1.398155 -0.105875
H 1.746708 1.365156 -1.164781
9
Time step 2510
C -1.019015 -0.002028 -0.269644
F -0.910490 0.265605 -1.599228
F -1.817993 1.075104 0.423072
F -1.554239 -1.175267 0.082136
S 0.913074 -0.095659 0.258547
O 0.956890 -0.259118 1.720347
O 1.473857 -1.228181 -0.556079
O 1.485797 1.397592 -0.106551
H 1.741783 1.363817 -1.154979
9
Time step 2511
C -1.018530 -0.002048 -0.269074
F -0.911535 0.266009 -1.599993
F -1.818361 1.075044 0.423329
F -1.555112 -1.175358 0.081956
S 0.913313 -0.096262 0.258329
O 0.956899 -0.258853 1.719922
O 1.475008 -1.226877 -0.554768
O 1.486825 1.397025 -0.107247
H 1.736787 1.362510 -1.144880
9
Time step 2512
C -1.018044 -0.002051 -0.268491
F -0.912586 0.266411 -1.600752
F -1.818716 1.074969 0.423574
F -1.555983 -1.175444 0.081771
S 0.913549 -0.096872 0.258115
O 0.956907 -0.258582 1.719492
O 1.476155 -1.225560 -0.553456
O 1.487858 1.396452 -0.107963
H 1.731728 1.361235 -1.134509
9
Time step 2513
C -1.017559 -0.002036 -0.267895
F -0.913644 0.266811 -1.601503
F -1.819058 1.074878 0.423808
F -1.556853 -1.175522 0.081581
S 0.913782 -0.097490 0.257905
O 0.956915 -0.258305 1.719055
O 1.477299 -1.224230 -0.552142
O 1.488894 1.395874 -0.108697
H 1.726613 1.359997 -1.123895
9
Time step 2514
C -1.017076 -0.002003 -0.267287
F -0.914707 0.267208 -1.602247
F -1.819387 1.074772 0.424031
F -1.557720 -1.175595 0.081385
S 0.914012 -0.098116 0.257700
O 0.956923 -0.258023 1.718612
O 1.478439 -1.222888 -0.550826
O 1.489933 1.395292 -0.109446
H 1.721453 1.358795 -1.113072
9
Time step 2515
C -1.016596 -0.001950 -0.266667
F -0.915775 0.267602 -1.602981
F -1.819702 1.074650 0.424243
F -1.558586 -1.175660 0.081183
S 0.914238 -0.098749 0.257499
O 0.956930 -0.257735 1.718164
O 1.479577 -1.221534 -0.549510
O 1.490974 1.394705 -0.110209
H 1.716259 1.357629 -1.102077
9
Time step 2516
C -1.016119 -0.001878 -0.266039
F -0.916848 0.267992 -1.603706
F -1.820004 1.074512 0.424444
F -1.559448 -1.175719 0.080975
S 0.914461 -0.099388 0.257302
O 0.956937 -0.257442 1.717709
O 1.480712 -1.220170 -0.548194
O 1.492015 1.394113 -0.110982
H 1.711045 1.356496 -1.090951
9
Time step 2517
C -1.015644 -0.001787 -0.265401
F -0.917926 0.268378 -1.604421
F -1.820293 1.074358 0.424635
F -1.560309 -1.175770 0.080762
S 0.914680 -0.100034 0.257111
O 0.956944 -0.257144 1.717249
O 1.481844 -1.218796 -0.546878
O 1.493057 1.393516 -0.111763
H 1.705825 1.355392 -1.079740
9
Time step 2518
C -1.015170 -0.001681 -0.264756
F -0.919009 0.268762 -1.605126
F -1.820569 1.074188 0.424815
F -1.561167 -1.175811 0.080543
S 0.914895 -0.100686 0.256924
O 0.956950 -0.256840 1.716783
O 1.482974 -1.217411 -0.545562
O 1.494097 1.392916 -0.112549
H 1.700610 1.354313 -1.068494
9
Time step 2519
C -1.014696 -0.001562 -0.264103
F -0.920099 0.269143 -1.605822
F -1.820833 1.074002 0.424984
F -1.562022 -1.175844 0.080320
S 0.915107 -0.101343 0.256743
O 0.956957 -0.256533 1.716312
O 1.484101 -1.216016 -0.544246
O 1.495136 1.392310 -0.113337
H 1.695416 1.353254 -1.057268
9
Time step 2520
C -1.014222 -0.001433 -0.263442
F -0.921194 0.269523 -1.606509
F -1.821083 1.073801 0.425143
F -1.562876 -1.175866 0.080091
S 0.915314 -0.102006 0.256567
O 0.956963 -0.256221 1.715834
O 1.485225 -1.214611 -0.542930
O 1.496171 1.391700 -0.114124
H 1.690255 1.352213 -1.046119
9
Time step 2521
C -1.013748 -0.001294 -0.262773
F -0.922295 0.269902 -1.607188
F -1.821320 1.073584 0.425291
F -1.563726 -1.175878 0.079858
S 0.915518 -0.102673 0.256398
O 0.956969 -0.255905 1.715350
O 1.486347 -1.213194 -0.541614
O 1.497202 1.391085 -0.114905
H 1.685140 1.351188 -1.035112
9
Time step 2522
C -1.013276 -0.001144 -0.262095
F -0.923402 0.270279 -1.607860
F -1.821544 1.073353 0.425428
F -1.564573 -1.175881 0.079620
S 0.915719 -0.103346 0.256234
O 0.956975 -0.255586 1.714860
O 1.487465 -1.211767 -0.540298
O 1.498227 1.390464 -0.115676
H 1.680086 1.350178 -1.024314
9
Time step 2523
C -1.012808 -0.000981 -0.261409
F -0.924514 0.270653 -1.608523
F -1.821753 1.073107 0.425554
F -1.565418 -1.175876 0.079377
S 0.915917 -0.104023 0.256077
O 0.956980 -0.255264 1.714365
O 1.488580 -1.210328 -0.538982
O 1.499247 1.389840 -0.116432
H 1.675105 1.349187 -1.013797
9
Time step 2524
C -1.012344 -0.000801 -0.260715
F -0.925631 0.271024 -1.609178
F -1.821949 1.072847 0.425669
F -1.566260 -1.175864 0.079130
S 0.916113 -0.104706 0.255925
O 0.956986 -0.254938 1.713863
O 1.489691 -1.208878 -0.537667
O 1.500259 1.389210 -0.117169
H 1.670213 1.348216 -1.003639
9
Time step 2525
C -1.011885 -0.000604 -0.260012
F -0.926753 0.271391 -1.609824
F -1.822132 1.072571 0.425773
F -1.567100 -1.175846 0.078878
S 0.916307 -0.105395 0.255779
O 0.956991 -0.254608 1.713356
O 1.490797 -1.207417 -0.536352
O 1.501264 1.388576 -0.117881
H 1.665426 1.347267 -0.993920
9
Time step 2526
C -1.011430 -0.000387 -0.259302
F -0.927880 0.271754 -1.610460
F -1.822300 1.072281 0.425866
F -1.567938 -1.175821 0.078621
S 0.916499 -0.106089 0.255639
O 0.956995 -0.254275 1.712844
O 1.491899 -1.205945 -0.535039
O 1.502260 1.387939 -0.118562
H 1.660759 1.346340 -0.984723
9
Time step 2527
C -1.010980 -0.000150 -0.258585
F -0.929011 0.272113 -1.611086
F -1.822455 1.071974 0.425946
F -1.568774 -1.175791 0.078359
S 0.916690 -0.106789 0.255505
O 0.956999 -0.253937 1.712326
O 1.492997 -1.204463 -0.533728
O 1.503247 1.387298 -0.119210
H 1.656228 1.345433 -0.976133
9
Time step 2528
C -1.010534 0.000107 -0.257861
F -0.930148 0.272468 -1.611700
F -1.822596 1.071652 0.426014
F -1.569609 -1.175754 0.078092
S 0.916878 -0.107494 0.255379
O 0.957002 -0.253595 1.711802
O 1.494090 -1.202971 -0.532419
O 1.504223 1.386654 -0.119817
H 1.651848 1.344543 -0.968233
9
Time step 2529
C -1.010091 0.000385 -0.257131
F -0.931290 0.272820 -1.612302
F -1.822723 1.071313 0.426070
F -1.570440 -1.175710 0.077820
S 0.917064 -0.108204 0.255259
O 0.957004 -0.253248 1.711272
O 1.495181 -1.201471 -0.531113
O 1.505188 1.386006 -0.120381
H 1.647631 1.343666 -0.961101
9
Time step 2530
C -1.009651 0.000682 -0.256395
F -0.932438 0.273168 -1.612893
F -1.822835 1.070958 0.426115
F -1.571269 -1.175659 0.077542
S 0.917246 -0.108919 0.255148
O 0.957006 -0.252898 1.710737
O 1.496268 -1.199962 -0.529809
O 1.506142 1.385356 -0.120896
H 1.643589 1.342798 -0.954815
9
Time step 2531
C -1.009215 0.000999 -0.255655
F -0.933593 0.273512 -1.613472
F -1.822934 1.070586 0.426148
F -1.572094 -1.175601 0.077258
S 0.917424 -0.109639 0.255046
O 0.957006 -0.252542 1.710196
O 1.497354 -1.198447 -0.528510
O 1.507084 1.384704 -0.121358
H 1.639728 1.341938 -0.949443
9
Time step 2532
C -1.008783 0.001336 -0.254909
F -0.934753 0.273852 -1.614041
F -1.823018 1.070199 0.426172
F -1.572916 -1.175535 0.076968
S 0.917598 -0.110363 0.254952
O 0.957005 -0.252183 1.709649
O 1.498438 -1.196925 -0.527214
O 1.508014 1.384049 -0.121763
H 1.636055 1.341086 -0.945050
9
Time step 2533
C -1.008356 0.001689 -0.254157
F -0.935919 0.274188 -1.614599
F -1.823087 1.069796 0.426184
F -1.573735 -1.175461 0.076672
S 0.917768 -0.111090 0.254867
O 0.957004 -0.251819 1.709098
O 1.499521 -1.195398 -0.525923
O 1.508932 1.383392 -0.122109
H 1.632571 1.340241 -0.941692
9
Time step 2534
C -1.007935 0.002060 -0.253400
F -0.937089 0.274521 -1.615146
F -1.823142 1.069377 0.426186
F -1.574551 -1.175380 0.076371
S 0.917933 -0.111821 0.254791
O 0.957002 -0.251451 1.708541
O 1.500604 -1.193866 -0.524638
O 1.509837 1.382733 -0.122391
H 1.629278 1.339405 -0.939416
9
Time step 2535
C -1.007522 0.002445 -0.252637
F -0.938264 0.274851 -1.615683
F -1.823183 1.068943 0.426176
F -1.575365 -1.175290 0.076065
S 0.918094 -0.112555 0.254724
O 0.957000 -0.251080 1.707981
O 1.501687 -1.192329 -0.523359
O 1.510730 1.382071 -0.122608
H 1.626177 1.338579 -0.938259
9
Time step 2536
C -1.007117 0.002844 -0.251869
F -0.939443 0.275178 -1.616208
F -1.823208 1.068494 0.426155
F -1.576174 -1.175192 0.075753
S 0.918251 -0.113291 0.254665
O 0.956996 -0.250704 1.707418
O 1.502770 -1.190788 -0.522087
O 1.511609 1.381406 -0.122758
H 1.623265 1.337763 -0.938246
9
Time step 2537
C -1.006722 0.003255 -0.251096
F -0.940626 0.275503 -1.616721
F -1.823219 1.068030 0.426122
F -1.576980 -1.175084 0.075438
S 0.918403 -0.114028 0.254616
O 0.956992 -0.250324 1.706851
O 1.503855 -1.189245 -0.520823
O 1.512475 1.380738 -0.122841
H 1.620542 1.336953 -0.939389
9
Time step 2538
C -1.006337 0.003679 -0.250319
F -0.941813 0.275825 -1.617222
F -1.823216 1.067550 0.426077
F -1.577780 -1.174967 0.075117
S 0.918550 -0.114767 0.254575
O 0.956986 -0.249940 1.706281
O 1.504941 -1.187701 -0.519567
O 1.513327 1.380066 -0.122855
H 1.618004 1.336149 -0.941682
9
Time step 2539
C -1.005963 0.004117 -0.249540
F -0.943004 0.276143 -1.617709
F -1.823198 1.067055 0.426022
F -1.578574 -1.174839 0.074790
S 0.918693 -0.115505 0.254544
O 0.956979 -0.249553 1.705709
O 1.506029 -1.186158 -0.518320
O 1.514167 1.379390 -0.122804
H 1.615646 1.335346 -0.945107
9
Time step 2540
C -1.005597 0.004567 -0.248760
F -0.944200 0.276459 -1.618183
F -1.823166 1.066545 0.425957
F -1.579363 -1.174700 0.074458
S 0.918831 -0.116242 0.254521
O 0.956970 -0.249162 1.705134
O 1.507119 -1.184616 -0.517082
O 1.514993 1.378711 -0.122688
H 1.613459 1.334544 -0.949627
9
Time step 2541
C -1.005240 0.005031 -0.247977
F -0.945400 0.276771 -1.618645
F -1.823122 1.066020 0.425882
F -1.580147 -1.174551 0.074121
S 0.918964 -0.116978 0.254507
O 0.956960 -0.248768 1.704557
O 1.508211 -1.183076 -0.515852
O 1.515807 1.378028 -0.122511
H 1.611434 1.333745 -0.955195
9
Time step 2542
C -1.004890 0.005506 -0.247192
F -0.946605 0.277081 -1.619094
F -1.823064 1.065480 0.425798
F -1.580927 -1.174392 0.073778
S 0.919093 -0.117713 0.254501
O 0.956948 -0.248372 1.703978
O 1.509307 -1.181540 -0.514630
O 1.516609 1.377341 -0.122276
H 1.609558 1.332949 -0.961748
9
Time step 2543
C -1.004548 0.005992 -0.246405
F -0.947813 0.277388 -1.619533
F -1.822992 1.064924 0.425704
F -1.581702 -1.174223 0.073431
S 0.919217 -0.118445 0.254503
O 0.956936 -0.247972 1.703397
O 1.510405 -1.180006 -0.513417
O 1.517401 1.376651 -0.121989
H 1.607817 1.332165 -0.969219
9
Time step 2544
C -1.004213 0.006489 -0.245616
F -0.949024 0.277694 -1.619959
F -1.822908 1.064354 0.425601
F -1.582475 -1.174045 0.073079
S 0.919335 -0.119176 0.254514
O 0.956922 -0.247570 1.702814
O 1.511505 -1.178475 -0.512212
O 1.518185 1.375956 -0.121654
H 1.606196 1.331396 -0.977533
9
Time step 2545
C -1.003885 0.006996 -0.244826
F -0.950239 0.277998 -1.620374
F -1.822809 1.063769 0.425487
F -1.583245 -1.173859 0.072723
S 0.919449 -0.119905 0.254534
O 0.956908 -0.247164 1.702231
O 1.512608 -1.176946 -0.511016
O 1.518959 1.375258 -0.121275
H 1.604680 1.330652 -0.986613
9
Time step 2546
C -1.003567 0.007515 -0.244033
F -0.951457 0.278301 -1.620776
F -1.822696 1.063169 0.425363
F -1.584012 -1.173665 0.072362
S 0.919557 -0.120633 0.254562
O 0.956892 -0.246754 1.701647
O 1.513714 -1.175419 -0.509831
O 1.519727 1.374554 -0.120859
H 1.603257 1.329939 -0.996381
9
Time step 2547
C -1.003258 0.008048 -0.243240
F -0.952678 0.278601 -1.621163
F -1.822568 1.062554 0.425227
F -1.584775 -1.173463 0.071997
S 0.919660 -0.121360 0.254599
O 0.956875 -0.246340 1.701062
O 1.514822 -1.173894 -0.508655
O 1.520488 1.373844 -0.120409
H 1.601915 1.329261 -1.006758
9
Time step 2548
C -1.002958 0.008596 -0.242447
F -0.953903 0.278899 -1.621537
F -1.822425 1.061924 0.425080
F -1.585535 -1.173255 0.071628
S 0.919758 -0.122084 0.254645
O 0.956857 -0.245921 1.700476
O 1.515931 -1.172373 -0.507491
O 1.521243 1.373129 -0.119930
H 1.600646 1.328624 -1.017667
9
Time step 2549
C -1.002667 0.009161 -0.241655
F -0.955131 0.279192 -1.621897
F -1.822267 1.061278 0.424922
F -1.586290 -1.173040 0.071253
S 0.919850 -0.122805 0.254701
O 0.956838 -0.245499 1.699888
O 1.517042 -1.170856 -0.506338
O 1.521992 1.372408 -0.119425
H 1.599442 1.328029 -1.029030
9
Time step 2550
C -1.002385 0.009743 -0.240863
F -0.956363 0.279482 -1.622243
F -1.822094 1.060618 0.424754
F -1.587042 -1.172818 0.070875
S 0.919939 -0.123524 0.254766
O 0.956817 -0.245073 1.699299
O 1.518154 -1.169343 -0.505198
O 1.522735 1.371681 -0.118901
H 1.598297 1.327477 -1.040769
9
Time step 2551
C -1.002111 0.010343 -0.240072
F -0.957597 0.279767 -1.622575
F -1.821907 1.059942 0.424576
F -1.587789 -1.172589 0.070491
S 0.920023 -0.124239 0.254841
O 0.956794 -0.244643 1.698709
O 1.519268 -1.167837 -0.504070
O 1.523473 1.370948 -0.118360
H 1.597207 1.326969 -1.052809
9
Time step 2552
C -1.001847 0.010958 -0.239282
F -0.958836 0.280048 -1.622896
F -1.821706 1.059252 0.424388
F -1.588532 -1.172353 0.070104
S 0.920102 -0.124950 0.254926
O 0.956769 -0.244210 1.698118
O 1.520383 -1.166336 -0.502956
O 1.524206 1.370209 -0.117809
H 1.596165 1.326504 -1.065077
9
Time step 2553
C -1.001594 0.011589 -0.238493
F -0.960077 0.280326 -1.623205
F -1.821491 1.058547 0.424190
F -1.589270 -1.172109 0.069713
S 0.920177 -0.125658 0.255021
O 0.956743 -0.243774 1.697526
O 1.521500 -1.164840 -0.501855
O 1.524933 1.369462 -0.117251
H 1.595166 1.326084 -1.077506
9
Time step 2554
C -1.001351 0.012234 -0.237706
F -0.961322 0.280599 -1.623502
F -1.821262 1.057826 0.423982
F -1.590003 -1.171856 0.069319
S 0.920247 -0.126361 0.255126
O 0.956716 -0.243335 1.696935
O 1.522621 -1.163351 -0.500767
O 1.525656 1.368709 -0.116691
H 1.594204 1.325707 -1.090031
9
Time step 2555
C -1.001119 0.012893 -0.236920
F -0.962571 0.280869 -1.623786
F -1.821018 1.057091 0.423765
F -1.590731 -1.171593 0.068920
S 0.920311 -0.127060 0.255240
O 0.956687 -0.242893 1.696345
O 1.523745 -1.161867 -0.499692
O 1.526374 1.367949 -0.116131
H 1.593271 1.325374 -1.102594
9
Time step 2556
C -1.000899 0.013564 -0.236135
F -0.963823 0.281135 -1.624058
F -1.820759 1.056341 0.423537
F -1.591455 -1.171320 0.068516
S 0.920370 -0.127756 0.255363
O 0.956658 -0.242449 1.695757
O 1.524873 -1.160389 -0.498631
O 1.527088 1.367183 -0.115577
H 1.592362 1.325085 -1.115141
9
Time step 2557
C -1.000690 0.014248 -0.235353
F -0.965078 0.281397 -1.624316
F -1.820485 1.055576 0.423299
F -1.592174 -1.171037 0.068108
S 0.920424 -0.128446 0.255495
O 0.956629 -0.242002 1.695171
O 1.526006 -1.158919 -0.497583
O 1.527797 1.366409 -0.115030
H 1.591472 1.324840 -1.127624
9
Time step 2558
C -1.000492 0.014944 -0.234573
F -0.966337 0.281655 -1.624559
F -1.820197 1.054795 0.423052
F -1.592889 -1.170744 0.067695
S 0.920472 -0.129131 0.255635
O 0.956598 -0.241553 1.694590
O 1.527144 -1.157456 -0.496549
O 1.528502 1.365629 -0.114493
H 1.590596 1.324639 -1.139996
9
Time step 2559
C -1.000304 0.015649 -0.233795
F -0.967600 0.281910 -1.624788
F -1.819894 1.054001 0.422794
F -1.593599 -1.170441 0.067276
S 0.920515 -0.129810 0.255782
O 0.956566 -0.241101 1.694012
O 1.528288 -1.156002 -0.495529
O 1.529203 1.364843 -0.113969
H 1.589730 1.324483 -1.152214
9
Time step 2560
C -1.000128 0.016362 -0.233020
F -0.968865 0.282163 -1.625003
F -1.819577 1.053193 0.422526
F -1.594306 -1.170127 0.066854
S 0.920551 -0.130483 0.255937
O 0.956533 -0.240647 1.693439
O 1.529437 -1.154559 -0.494523
O 1.529900 1.364051 -0.113461
H 1.588873 1.324370 -1.164240
9
Time step 2561
C -0.999964 0.017082 -0.232248
F -0.970133 0.282412 -1.625203
F -1.819245 1.052372 0.422249
F -1.595007 -1.169803 0.066426
S 0.920582 -0.131151 0.256101
O 0.956499 -0.240191 1.692870
O 1.530592 -1.153125 -0.493533
O 1.530594 1.363254 -0.112972
H 1.588022 1.324302 -1.176035
9
Time step 2562
C -0.999813 0.017808 -0.231479
F -0.971404 0.282659 -1.625389
F -1.818900 1.051538 0.421963
F -1.595703 -1.169469 0.065995
S 0.920607 -0.131812 0.256274
O 0.956462 -0.239732 1.692306
O 1.531753 -1.151703 -0.492559
O 1.531285 1.362451 -0.112502
H 1.587179 1.324278 -1.187567
9
Time step 2563
C -0.999675 0.018540 -0.230715
F -0.972676 0.282903 -1.625562
F -1.818541 1.050692 0.421669
F -1.596393 -1.169125 0.065559
S 0.920626 -0.132467 0.256456
O 0.956424 -0.239270 1.691746
O 1.532921 -1.150292 -0.491603
O 1.531972 1.361643 -0.112055
H 1.586343 1.324300 -1.198804
9
Time step 2564
C -0.999551 0.019280 -0.229954
F -0.973951 0.283143 -1.625721
F -1.818168 1.049834 0.421365
F -1.597076 -1.168771 0.065119
S 0.920638 -0.133116 0.256648
O 0.956384 -0.238805 1.691191
O 1.534095 -1.148894 -0.490665
O 1.532657 1.360831 -0.111632
H 1.585513 1.324370 -1.209721
9
Time step 2565
C -0.999441 0.020029 -0.229199
F -0.975229 0.283380 -1.625866
F -1.817782 1.048963 0.421053
F -1.597753 -1.168408 0.064674
S 0.920643 -0.133758 0.256850
O 0.956342 -0.238336 1.690640
O 1.535278 -1.147510 -0.489746
O 1.533338 1.360013 -0.111234
H 1.584691 1.324488 -1.220296
9
Time step 2566
C -0.999345 0.020787 -0.228448
F -0.976509 0.283614 -1.625997
F -1.817381 1.048079 0.420732
F -1.598424 -1.168035 0.064226
S 0.920641 -0.134392 0.257062
O 0.956297 -0.237864 1.690093
O 1.536467 -1.146142 -0.488846
O 1.534017 1.359191 -0.110861
H 1.583875 1.324657 -1.230509
9
Time step 2567
C -0.999263 0.021555 -0.227702
F -0.977791 0.283845 -1.626114
F -1.816966 1.047182 0.420402
F -1.599090 -1.167654 0.063773
S 0.920632 -0.135018 0.257284
O 0.956252 -0.237389 1.689552
O 1.537665 -1.144791 -0.487966
O 1.534693 1.358363 -0.110516
H 1.583064 1.324875 -1.240344
9
Time step 2568
C -0.999195 0.022332 -0.226962
F -0.979076 0.284074 -1.626215
F -1.816535 1.046272 0.420063
F -1.599750 -1.167264 0.063316
S 0.920616 -0.135634 0.257517
O 0.956204 -0.236910 1.689015
O 1.538870 -1.143456 -0.487106
O 1.535366 1.357530 -0.110198
H 1.582259 1.325143 -1.249789
9
Time step 2569
C -0.999141 0.023118 -0.226227
F -0.980362 0.284300 -1.626301
F -1.816090 1.045347 0.419714
F -1.600405 -1.166867 0.062855
S 0.920593 -0.136240 0.257758
O 0.956154 -0.236429 1.688483
O 1.540083 -1.142140 -0.486265
O 1.536035 1.356692 -0.109908
H 1.581457 1.325456 -1.258832
9
Time step 2570
C -0.999101 0.023912 -0.225498
F -0.981650 0.284525 -1.626371
F -1.815629 1.044410 0.419355
F -1.601055 -1.166463 0.062391
S 0.920562 -0.136833 0.258010
O 0.956103 -0.235947 1.687957
O 1.541304 -1.140843 -0.485443
O 1.536700 1.355846 -0.109648
H 1.580657 1.325812 -1.267462
9
Time step 2571
C -0.999073 0.024714 -0.224773
F -0.982940 0.284747 -1.626427
F -1.815153 1.043459 0.418986
F -1.601699 -1.166050 0.061924
S 0.920524 -0.137415 0.258270
O 0.956050 -0.235464 1.687436
O 1.542534 -1.139563 -0.484642
O 1.537362 1.354994 -0.109417
H 1.579858 1.326205 -1.275669
9
Time step 2572
C -0.999057 0.025524 -0.224051
F -0.984231 0.284967 -1.626468
F -1.814663 1.042496 0.418607
F -1.602339 -1.165629 0.061453
S 0.920479 -0.137984 0.258540
O 0.955995 -0.234979 1.686921
O 1.543772 -1.138302 -0.483860
O 1.538020 1.354135 -0.109216
H 1.579059 1.326633 -1.283446
9
Time step 2573
C -0.999051 0.026343 -0.223334
F -0.985525 0.285184 -1.626495
F -1.814160 1.041519 0.418219
F -1.602974 -1.165199 0.060978
S 0.920427 -0.138542 0.258819
O 0.955938 -0.234493 1.686413
O 1.545018 -1.137059 -0.483100
O 1.538673 1.353269 -0.109045
H 1.578259 1.327090 -1.290783
9
Time step 2574
C -0.999054 0.027169 -0.222620
F -0.986820 0.285397 -1.626508
F -1.813644 1.040530 0.417822
F -1.603604 -1.164760 0.060499
S 0.920369 -0.139087 0.259107
O 0.955878 -0.234007 1.685911
O 1.546273 -1.135834 -0.482360
O 1.539321 1.352395 -0.108905
H 1.577459 1.327575 -1.297673
9
Time step 2575
C -0.999068 0.028003 -0.221911
F -0.988116 0.285608 -1.626507
F -1.813115 1.039528 0.417417
F -1.604229 -1.164311 0.060017
S 0.920304 -0.139620 0.259403
O 0.955816 -0.233519 1.685417
O 1.547537 -1.134628 -0.481641
O 1.539964 1.351515 -0.108794
H 1.576658 1.328087 -1.304111
9
Time step 2576
C -0.999094 0.028844 -0.221209
F -0.989414 0.285816 -1.626491
F -1.812574 1.038514 0.417003
F -1.604849 -1.163853 0.059531
S 0.920232 -0.140140 0.259707
O 0.955752 -0.233029 1.684932
O 1.548810 -1.133440 -0.480944
O 1.540603 1.350627 -0.108715
H 1.575856 1.328627 -1.310092
9
Time step 2577
C -0.999134 0.029692 -0.220514
F -0.990712 0.286021 -1.626462
F -1.812019 1.037489 0.416582
F -1.605463 -1.163386 0.059044
S 0.920155 -0.140649 0.260018
O 0.955685 -0.232537 1.684457
O 1.550092 -1.132272 -0.480267
O 1.541236 1.349733 -0.108665
H 1.575052 1.329194 -1.315613
9
Time step 2578
C -0.999189 0.030547 -0.219829
F -0.992011 0.286224 -1.626417
F -1.811450 1.036451 0.416152
F -1.606072 -1.162911 0.058553
S 0.920071 -0.141147 0.260336
O 0.955616 -0.232043 1.683991
O 1.551383 -1.131122 -0.479611
O 1.541865 1.348833 -0.108647
H 1.574245 1.329792 -1.320672
9
Time step 2579
C -0.999259 0.031408 -0.219152
F -0.993312 0.286424 -1.626358
F -1.810866 1.035401 0.415715
F -1.606675 -1.162428 0.058060
S 0.919980 -0.141632 0.260660
O 0.955545 -0.231547 1.683538
O 1.552683 -1.129992 -0.478976
O 1.542489 1.347926 -0.108659
H 1.573434 1.330421 -1.325268
9
Time step 2580
C -0.999343 0.032277 -0.218485
F -0.994613 0.286621 -1.626284
F -1.810268 1.034339 0.415270
F -1.607273 -1.161935 0.057564
S 0.919883 -0.142107 0.260990
O 0.955471 -0.231049 1.683096
O 1.553992 -1.128880 -0.478361
O 1.543109 1.347014 -0.108702
H 1.572618 1.331081 -1.329400
9
Time step 2581
C -0.999441 0.033154 -0.217827
F -0.995917 0.286815 -1.626196
F -1.809656 1.033264 0.414816
F -1.607865 -1.161433 0.057065
S 0.919779 -0.142571 0.261327
O 0.955395 -0.230549 1.682667
O 1.555310 -1.127787 -0.477767
O 1.543724 1.346097 -0.108777
H 1.571797 1.331773 -1.333067
9
Time step 2582
C -0.999550 0.034040 -0.217175
F -0.997223 0.287006 -1.626092
F -1.809031 1.032176 0.414354
F -1.608453 -1.160922 0.056561
S 0.919668 -0.143025 0.261670
O 0.955317 -0.230047 1.682251
O 1.556638 -1.126712 -0.477194
O 1.544337 1.345175 -0.108883
H 1.570970 1.332496 -1.336265
9
Time step 2583
C -0.999671 0.034932 -0.216531
F -0.998531 0.287194 -1.625975
F -1.808392 1.031077 0.413884
F -1.609036 -1.160402 0.056054
S 0.919549 -0.143469 0.262019
O 0.955237 -0.229542 1.681849
O 1.557976 -1.125655 -0.476642
O 1.544945 1.344249 -0.109021
H 1.570139 1.333248 -1.338992
9
Time step 2584
C -0.999803 0.035829 -0.215895
F -0.999840 0.287378 -1.625842
F -1.807740 1.029966 0.413407
F -1.609614 -1.159872 0.055542
S 0.919424 -0.143903 0.262374
O 0.955155 -0.229034 1.681459
O 1.559322 -1.124618 -0.476112
O 1.545551 1.343320 -0.109190
H 1.569304 1.334024 -1.341246
9
Time step 2585
C -0.999950 0.036730 -0.215267
F -1.001150 0.287560 -1.625695
F -1.807075 1.028844 0.412922
F -1.610188 -1.159333 0.055028
S 0.919292 -0.144326 0.262736
O 0.955071 -0.228523 1.681083
O 1.560679 -1.123600 -0.475604
O 1.546153 1.342386 -0.109390
H 1.568469 1.334823 -1.343022
9
Time step 2586
C -1.000111 0.037633 -0.214650
F -1.002461 0.287740 -1.625534
F -1.806397 1.027712 0.412430
F -1.610755 -1.158786 0.054511
S 0.919152 -0.144737 0.263105
O 0.954984 -0.228008 1.680719
O 1.562045 -1.122603 -0.475120
O 1.546751 1.341449 -0.109623
H 1.567637 1.335640 -1.344318
9
Time step 2587
C -1.000288 0.038536 -0.214044
F -1.003772 0.287918 -1.625358
F -1.805707 1.026571 0.411932
F -1.611315 -1.158231 0.053990
S 0.919005 -0.145136 0.263481
O 0.954896 -0.227491 1.680368
O 1.563421 -1.121628 -0.474659
O 1.547346 1.340508 -0.109886
H 1.566808 1.336472 -1.345131
9
Time step 2588
C -1.000482 0.039440 -0.213451
F -1.005084 0.288093 -1.625167
F -1.805003 1.025421 0.411428
F -1.611868 -1.157667 0.053467
S 0.918850 -0.145521 0.263863
O 0.954805 -0.226972 1.680030
O 1.564807 -1.120676 -0.474222
O 1.547936 1.339564 -0.110181
H 1.565986 1.337315 -1.345459
9
Time step 2589
C -1.000690 0.040344 -0.212869
F -1.006397 0.288265 -1.624962
F -1.804287 1.024262 0.410918
F -1.612413 -1.157093 0.052940
S 0.918687 -0.145891 0.264254
O 0.954713 -0.226452 1.679704
O 1.566203 -1.119748 -0.473808
O 1.548523 1.338615 -0.110507
H 1.565171 1.338169 -1.345302
9
Time step 2590
C -1.000912 0.041250 -0.212299
F -1.007712 0.288434 -1.624742
F -1.803559 1.023093 0.410401
F -1.612952 -1.156511 0.052409
S 0.918517 -0.146247 0.264651
O 0.954619 -0.225931 1.679392
O 1.567609 -1.118844 -0.473418
O 1.549106 1.337663 -0.110865
H 1.564362 1.339032 -1.344658
9
Time step 2591
C -1.001148 0.042157 -0.211739
F -1.009029 0.288600 -1.624507
F -1.802819 1.021915 0.409877
F -1.613483 -1.155919 0.051875
S 0.918338 -0.146587 0.265055
O 0.954524 -0.225410 1.679093
O 1.569026 -1.117965 -0.473050
O 1.549684 1.336707 -0.111254
H 1.563560 1.339903 -1.343530
9
Time step 2592
C -1.001398 0.043066 -0.211189
F -1.010346 0.288763 -1.624259
F -1.802065 1.020727 0.409347
F -1.614008 -1.155319 0.051338
S 0.918151 -0.146911 0.265464
O 0.954427 -0.224890 1.678808
O 1.570453 -1.117110 -0.472706
O 1.550259 1.335747 -0.111674
H 1.562763 1.340782 -1.341917
9
Time step 2593
C -1.001661 0.043976 -0.210648
F -1.011664 0.288923 -1.623996
F -1.801300 1.019530 0.408809
F -1.614528 -1.154711 0.050797
S 0.917956 -0.147221 0.265880
O 0.954330 -0.224369 1.678538
O 1.571890 -1.116278 -0.472383
O 1.550829 1.334785 -0.112126
H 1.561970 1.341669 -1.339821
9
Time step 2594
C -1.001939 0.044886 -0.210117
F -1.012981 0.289081 -1.623719
F -1.800521 1.018324 0.408265
F -1.615043 -1.154094 0.050253
S 0.917754 -0.147517 0.266300
O 0.954232 -0.223849 1.678282
O 1.573337 -1.115470 -0.472083
O 1.551394 1.333820 -0.112609
H 1.561183 1.342562 -1.337243
9
Time step 2595
C -1.002232 0.045794 -0.209595
F -1.014298 0.289238 -1.623429
F -1.799729 1.017110 0.407715
F -1.615553 -1.153470 0.049707
S 0.917544 -0.147798 0.266726
O 0.954131 -0.223328 1.678042
O 1.574795 -1.114683 -0.471804
O 1.551954 1.332852 -0.113125
H 1.560400 1.343461 -1.334185
9
Time step 2596
C -1.002538 0.046702 -0.209085
F -1.015615 0.289393 -1.623124
F -1.798926 1.015888 0.407159
F -1.616057 -1.152839 0.049158
S 0.917328 -0.148067 0.267156
O 0.954028 -0.222806 1.677817
O 1.576263 -1.113918 -0.471548
O 1.552509 1.331882 -0.113672
H 1.559625 1.344364 -1.330649
9
Time step 2597
C -1.002856 0.047608 -0.208585
F -1.016931 0.289547 -1.622805
F -1.798110 1.014659 0.406597
F -1.616556 -1.152200 0.048607
S 0.917104 -0.148323 0.267591
O 0.953921 -0.222282 1.677608
O 1.577741 -1.113176 -0.471314
O 1.553058 1.330909 -0.114251
H 1.558859 1.345270 -1.326633
9
Time step 2598
C -1.003185 0.048512 -0.208097
F -1.018249 0.289699 -1.622471
F -1.797282 1.013422 0.406030
F -1.617049 -1.151554 0.048052
S 0.916875 -0.148566 0.268031
O 0.953811 -0.221757 1.677415
O 1.579229 -1.112455 -0.471103
O 1.553601 1.329934 -0.114862
H 1.558103 1.346178 -1.322139
9
Time step 2599
C -1.003525 0.049416 -0.207622
F -1.019566 0.289849 -1.622123
F -1.796443 1.012177 0.405457
F -1.617537 -1.150899 0.047496
S 0.916639 -0.148796 0.268476
O 0.953697 -0.221230 1.677239
O 1.580727 -1.111757 -0.470915
O 1.554139 1.328956 -0.115504
H 1.557361 1.347088 -1.317168
9
Time step 2600
C -1.003877 0.050318 -0.207159
F -1.020885 0.289998 -1.621760
F -1.795592 1.010924 0.404878
F -1.618020 -1.150237 0.046937
S 0.916398 -0.149013 0.268925
O 0.953579 -0.220702 1.677081
O 1.582234 -1.111081 -0.470750
O 1.554671 1.327977 -0.116178
H 1.556631 1.348000 -1.311721
9
Time step 2601
C -1.004242 0.051220 -0.206709
F -1.022204 0.290145 -1.621382
F -1.794730 1.009663 0.404293
F -1.618497 -1.149567 0.046376
S 0.916151 -0.149219 0.269378
O 0.953457 -0.220172 1.676939
O 1.583750 -1.110428 -0.470608
O 1.555197 1.326997 -0.116884
H 1.555916 1.348913 -1.305803
9
Time step 2602
C -1.004620 0.052121 -0.206273
F -1.023522 0.290291 -1.620989
F -1.793857 1.008394 0.403702
F -1.618968 -1.148889 0.045814
S 0.915897 -0.149412 0.269834
O 0.953333 -0.219641 1.676816
O 1.585276 -1.109796 -0.470489
O 1.555718 1.326016 -0.117619
H 1.555215 1.349829 -1.299419
9
Time step 2603
C -1.005011 0.053022 -0.205851
F -1.024839 0.290435 -1.620580
F -1.792973 1.007118 0.403106
F -1.619434 -1.148205 0.045250
S 0.915638 -0.149593 0.270294
O 0.953207 -0.219109 1.676711
O 1.586810 -1.109187 -0.470390
O 1.556234 1.325034 -0.118385
H 1.554527 1.350748 -1.292580
9
Time step 2604
C -1.005415 0.053922 -0.205444
F -1.026155 0.290578 -1.620156
F -1.792078 1.005836 0.402504
F -1.619894 -1.147514 0.044684
S 0.915371 -0.149762 0.270756
O 0.953079 -0.218576 1.676624
O 1.588354 -1.108598 -0.470314
O 1.556744 1.324051 -0.119179
H 1.553851 1.351668 -1.285296
9
Time step 2605
C -1.005831 0.054822 -0.205051
F -1.027471 0.290719 -1.619717
F -1.791173 1.004547 0.401897
F -1.620348 -1.146817 0.044116
S 0.915098 -0.149921 0.271221
O 0.952949 -0.218041 1.676555
O 1.589906 -1.108031 -0.470258
O 1.557249 1.323068 -0.120002
H 1.553187 1.352589 -1.277582
9
Time step 2606
C -1.006257 0.055721 -0.204674
F -1.028786 0.290858 -1.619263
F -1.790258 1.003252 0.401285
F -1.620795 -1.146111 0.043546
S 0.914817 -0.150068 0.271688
O 0.952818 -0.217504 1.676504
O 1.591467 -1.107486 -0.470223
O 1.557748 1.322083 -0.120851
H 1.552534 1.353510 -1.269452
9
Time step 2607
C -1.006692 0.056618 -0.204311
F -1.030101 0.290994 -1.618795
F -1.789333 1.001951 0.400669
F -1.621236 -1.145399 0.042973
S 0.914529 -0.150203 0.272157
O 0.952684 -0.216966 1.676473
O 1.593036 -1.106962 -0.470209
O 1.558240 1.321097 -0.121725
H 1.551892 1.354428 -1.260919
9
Time step 2608
C -1.007137 0.057512 -0.203963
F -1.031415 0.291128 -1.618312
F -1.788398 1.000644 0.400049
F -1.621671 -1.144678 0.042399
S 0.914235 -0.150327 0.272628
O 0.952549 -0.216426 1.676460
O 1.594614 -1.106458 -0.470216
O 1.558726 1.320110 -0.122625
H 1.551264 1.355343 -1.251998
9
Time step 2609
C -1.007593 0.058401 -0.203629
F -1.032728 0.291261 -1.617816
F -1.787454 0.999332 0.399425
F -1.622099 -1.143949 0.041822
S 0.913934 -0.150438 0.273101
O 0.952412 -0.215886 1.676468
O 1.596200 -1.105976 -0.470245
O 1.559206 1.319120 -0.123548
H 1.550651 1.356253 -1.242699
9
Time step 2610
C -1.008062 0.059283 -0.203309
F -1.034040 0.291392 -1.617308
F -1.786499 0.998014 0.398798
F -1.622522 -1.143212 0.041244
S 0.913627 -0.150536 0.273575
O 0.952273 -0.215344 1.676497
O 1.597795 -1.105515 -0.470295
O 1.559679 1.318128 -0.124494
H 1.550056 1.357156 -1.233036
9
Time step 2611
C -1.008542 0.060158 -0.203003
F -1.035351 0.291521 -1.616788
F -1.785534 0.996692 0.398167
F -1.622938 -1.142467 0.040664
S 0.913314 -0.150620 0.274050
O 0.952132 -0.214803 1.676547
O 1.599397 -1.105075 -0.470366
O 1.560146 1.317134 -0.125464
H 1.549480 1.358051 -1.223019
9
Time step 2612
C -1.009035 0.061024 -0.202711
F -1.036661 0.291648 -1.616254
F -1.784559 0.995365 0.397533
F -1.623349 -1.141714 0.040082
S 0.912996 -0.150690 0.274525
O 0.951988 -0.214262 1.676618
O 1.601008 -1.104655 -0.470457
O 1.560606 1.316138 -0.126455
H 1.548924 1.358938 -1.212664
9
Time step 2613
C -1.009538 0.061882 -0.202432
F -1.037971 0.291773 -1.615708
F -1.783576 0.994035 0.396896
F -1.623753 -1.140953 0.039498
S 0.912672 -0.150746 0.275001
O 0.951841 -0.213722 1.676711
O 1.602626 -1.104255 -0.470568
O 1.561061 1.315140 -0.127467
H 1.548388 1.359817 -1.201986
9
Time step 2614
C -1.010049 0.062732 -0.202170
F -1.039280 0.291896 -1.615149
F -1.782585 0.992702 0.396257
F -1.624151 -1.140185 0.038911
S 0.912344 -0.150790 0.275477
O 0.951692 -0.213182 1.676824
O 1.604252 -1.103876 -0.470698
O 1.561509 1.314140 -0.128499
H 1.547872 1.360686 -1.191007
9
Time step 2615
C -1.010568 0.063573 -0.201924
F -1.040589 0.292018 -1.614575
F -1.781586 0.991368 0.395617
F -1.624543 -1.139411 0.038321
S 0.912010 -0.150821 0.275952
O 0.951540 -0.212642 1.676959
O 1.605884 -1.103517 -0.470846
O 1.561951 1.313139 -0.129549
H 1.547374 1.361547 -1.179752
9
Time step 2616
C -1.011096 0.064407 -0.201698
F -1.041898 0.292137 -1.613988
F -1.780579 0.990031 0.394975
F -1.624928 -1.138631 0.037729
S 0.911671 -0.150840 0.276427
O 0.951385 -0.212102 1.677115
O 1.607522 -1.103177 -0.471013
O 1.562387 1.312138 -0.130615
H 1.546891 1.362402 -1.168253
9
Time step 2617
C -1.011633 0.065232 -0.201490
F -1.043207 0.292255 -1.613386
F -1.779564 0.988694 0.394332
F -1.625307 -1.137845 0.037134
S 0.911329 -0.150849 0.276902
O 0.951226 -0.211560 1.677292
O 1.609167 -1.102856 -0.471197
O 1.562818 1.311135 -0.131695
H 1.546421 1.363254 -1.156544
9
Time step 2618
C -1.012181 0.066049 -0.201303
F -1.044514 0.292371 -1.612771
F -1.778541 0.987355 0.393688
F -1.625680 -1.137054 0.036538
S 0.910982 -0.150848 0.277377
O 0.951064 -0.211017 1.677488
O 1.610817 -1.102553 -0.471399
O 1.563243 1.310133 -0.132786
H 1.545963 1.364104 -1.144662
9
Time step 2619
C -1.012739 0.066857 -0.201134
F -1.045820 0.292487 -1.612143
F -1.777510 0.986014 0.393042
F -1.626048 -1.136258 0.035941
S 0.910632 -0.150837 0.277851
O 0.950898 -0.210473 1.677706
O 1.612472 -1.102267 -0.471618
O 1.563662 1.309131 -0.133886
H 1.545516 1.364957 -1.132648
9
Time step 2620
C -1.013307 0.067656 -0.200982
F -1.047125 0.292602 -1.611502
F -1.776470 0.984672 0.392396
F -1.626411 -1.135457 0.035343
S 0.910279 -0.150818 0.278324
O 0.950729 -0.209927 1.677943
O 1.614132 -1.101998 -0.471853
O 1.564076 1.308129 -0.134992
H 1.545081 1.365817 -1.120548
9
Time step 2621
C -1.013884 0.068445 -0.200848
F -1.048428 0.292716 -1.610850
F -1.775422 0.983329 0.391748
F -1.626769 -1.134651 0.034742
S 0.909923 -0.150790 0.278796
O 0.950557 -0.209380 1.678201
O 1.615797 -1.101745 -0.472103
O 1.564484 1.307129 -0.136101
H 1.544659 1.366688 -1.108408
9
Time step 2622
C -1.014469 0.069224 -0.200730
F -1.049732 0.292828 -1.610185
F -1.774365 0.981986 0.391099
F -1.627123 -1.133839 0.034141
S 0.909563 -0.150754 0.279267
O 0.950382 -0.208832 1.678478
O 1.617466 -1.101508 -0.472369
O 1.564886 1.306130 -0.137211
H 1.544253 1.367573 -1.096283
9
Time step 2623
C -1.015059 0.069992 -0.200628
F -1.051034 0.292940 -1.609508
F -1.773302 0.980642 0.390449
F -1.627473 -1.133023 0.033537
S 0.909200 -0.150709 0.279736
O 0.950204 -0.208284 1.678777
O 1.619139 -1.101287 -0.472649
O 1.565283 1.305132 -0.138316
H 1.543866 1.368474 -1.084232
9
Time step 2624
C -1.015656 0.070747 -0.200545
F -1.052336 0.293050 -1.608819
F -1.772231 0.979299 0.389798
F -1.627817 -1.132201 0.032932
S 0.908833 -0.150655 0.280203
O 0.950024 -0.207735 1.679095
O 1.620816 -1.101082 -0.472945
O 1.565675 1.304134 -0.139413
H 1.543499 1.369396 -1.072321
9
Time step 2625
C -1.016257 0.071489 -0.200481
F -1.053637 0.293160 -1.608116
F -1.771154 0.977958 0.389146
F -1.628156 -1.131375 0.032326
S 0.908462 -0.150593 0.280668
O 0.949841 -0.207186 1.679435
O 1.622497 -1.100893 -0.473256
O 1.566061 1.303137 -0.140496
H 1.543154 1.370340 -1.060625
9
Time step 2626
C -1.016864 0.072215 -0.200438
F -1.054937 0.293270 -1.607401
F -1.770072 0.976618 0.388494
F -1.628488 -1.130545 0.031719
S 0.908085 -0.150521 0.281131
O 0.949657 -0.206636 1.679796
O 1.624181 -1.100720 -0.473582
O 1.566442 1.302138 -0.141561
H 1.542829 1.371309 -1.049226
9
Time step 2627
C -1.017476 0.072926 -0.200416
F -1.056236 0.293380 -1.606674
F -1.768984 0.975281 0.387842
F -1.628814 -1.129709 0.031112
S 0.907704 -0.150440 0.281592
O 0.949471 -0.206086 1.680179
O 1.625869 -1.100561 -0.473924
O 1.566819 1.301138 -0.142603
H 1.542522 1.372307 -1.038209
9
Time step 2628
C -1.018092 0.073621 -0.200415
F -1.057532 0.293489 -1.605934
F -1.767892 0.973945 0.387190
F -1.629135 -1.128869 0.030504
S 0.907319 -0.150350 0.282050
O 0.949283 -0.205536 1.680583
O 1.627560 -1.100417 -0.474280
O 1.567191 1.300135 -0.143614
H 1.542227 1.373341 -1.027665
9
Time step 2629
C -1.018714 0.074301 -0.200435
F -1.058827 0.293598 -1.605182
F -1.766796 0.972611 0.386540
F -1.629450 -1.128023 0.029896
S 0.906929 -0.150252 0.282504
O 0.949094 -0.204985 1.681010
O 1.629255 -1.100286 -0.474651
O 1.567558 1.299128 -0.144590
H 1.541939 1.374417 -1.017681
9
Time step 2630
C -1.019342 0.074967 -0.200477
F -1.060120 0.293706 -1.604418
F -1.765696 0.971280 0.385890
F -1.629758 -1.127171 0.029288
S 0.906536 -0.150145 0.282956
O 0.948903 -0.204434 1.681458
O 1.630952 -1.100168 -0.475036
O 1.567922 1.298118 -0.145526
H 1.541653 1.375544 -1.008345
9
Time step 2631
C -1.019976 0.075618 -0.200539
F -1.061410 0.293813 -1.603643
F -1.764591 0.969951 0.385241
F -1.630061 -1.126315 0.028678
S 0.906140 -0.150031 0.283405
O 0.948710 -0.203882 1.681927
O 1.632651 -1.100063 -0.475434
O 1.568281 1.297104 -0.146416
H 1.541364 1.376734 -0.999741
9
Time step 2632
C -1.020618 0.076255 -0.200623
F -1.062697 0.293919 -1.602855
F -1.763482 0.968624 0.384595
F -1.630356 -1.125453 0.028067
S 0.905741 -0.149910 0.283850
O 0.948515 -0.203330 1.682419
O 1.634352 -1.099969 -0.475845
O 1.568635 1.296084 -0.147257
H 1.541066 1.377997 -0.991949
9
Time step 2633
C -1.021267 0.076876 -0.200730
F -1.063981 0.294024 -1.602056
F -1.762369 0.967301 0.383950
F -1.630646 -1.124585 0.027455
S 0.905340 -0.149782 0.284292
O 0.948318 -0.202778 1.682934
O 1.636053 -1.099888 -0.476270
O 1.568985 1.295060 -0.148042
H 1.540759 1.379348 -0.985044
9
Time step 2634
C -1.021921 0.077480 -0.200857
F -1.065262 0.294128 -1.601244
F -1.761252 0.965982 0.383308
F -1.630929 -1.123713 0.026841
S 0.904938 -0.149648 0.284730
O 0.948118 -0.202224 1.683471
O 1.637754 -1.099818 -0.476707
O 1.569330 1.294031 -0.148769
H 1.540438 1.380798 -0.979097
9
Time step 2635
C -1.022577 0.078065 -0.201006
F -1.066540 0.294232 -1.600420
F -1.760134 0.964668 0.382668
F -1.631206 -1.122837 0.026226
S 0.904536 -0.149507 0.285164
O 0.947915 -0.201669 1.684031
O 1.639454 -1.099761 -0.477156
O 1.569671 1.292996 -0.149432
H 1.540102 1.382358 -0.974174
9
Time step 2636
C -1.023231 0.078630 -0.201173
F -1.067816 0.294337 -1.599585
F -1.759014 0.963360 0.382030
F -1.631479 -1.121956 0.025609
S 0.904133 -0.149361 0.285592
O 0.947709 -0.201114 1.684614
O 1.641153 -1.099716 -0.477617
O 1.570006 1.291956 -0.150029
H 1.539749 1.384036 -0.970331
9
Time step 2637
C -1.023881 0.079176 -0.201359
F -1.069090 0.294441 -1.598739
F -1.757895 0.962058 0.381395
F -1.631746 -1.121071 0.024990
S 0.903730 -0.149208 0.286015
O 0.947499 -0.200558 1.685220
O 1.642850 -1.099683 -0.478089
O 1.570336 1.290911 -0.150555
H 1.539377 1.385840 -0.967617
9
Time step 2638
C -1.024526 0.079703 -0.201564
F -1.070362 0.294544 -1.597883
F -1.756775 0.960763 0.380763
F -1.632009 -1.120183 0.024369
S 0.903327 -0.149050 0.286432
O 0.947286 -0.200001 1.685848
O 1.644544 -1.099661 -0.478570
O 1.570662 1.289860 -0.151008
H 1.538984 1.387775 -0.966067
9
Time step 2639
C -1.025168 0.080212 -0.201788
F -1.071631 0.294647 -1.597017
F -1.755655 0.959476 0.380136
F -1.632267 -1.119292 0.023746
S 0.902924 -0.148886 0.286843
O 0.947070 -0.199445 1.686497
O 1.646236 -1.099651 -0.479061
O 1.570983 1.288803 -0.151387
H 1.538566 1.389844 -0.965699
9
Time step 2640
C -1.025810 0.080704 -0.202034
F -1.072899 0.294750 -1.596142
F -1.754533 0.958197 0.379513
F -1.632519 -1.118402 0.023123
S 0.902521 -0.148717 0.287247
O 0.946851 -0.198888 1.687166
O 1.647926 -1.099651 -0.479559
O 1.571300 1.287740 -0.151691
H 1.538122 1.392049 -0.966515
9
Time step 2641
C -1.026455 0.081180 -0.202304
F -1.074163 0.294851 -1.595257
F -1.753409 0.956926 0.378896
F -1.632766 -1.117510 0.022500
S 0.902118 -0.148544 0.287646
O 0.946629 -0.198332 1.687855
O 1.649613 -1.099660 -0.480064
O 1.571614 1.286672 -0.151922
H 1.537648 1.394389 -0.968498
9
Time step 2642
C -1.027104 0.081640 -0.202600
F -1.075424 0.294952 -1.594363
F -1.752282 0.955665 0.378285
F -1.633008 -1.116620 0.021876
S 0.901714 -0.148366 0.288040
O 0.946405 -0.197776 1.688564
O 1.651299 -1.099678 -0.480577
O 1.571925 1.285599 -0.152080
H 1.537143 1.396864 -0.971616
9
Time step 2643
C -1.027756 0.082081 -0.202921
F -1.076682 0.295053 -1.593460
F -1.751153 0.954413 0.377679
F -1.633245 -1.115729 0.021252
S 0.901309 -0.148185 0.288428
O 0.946179 -0.197220 1.689291
O 1.652982 -1.099704 -0.481097
O 1.572233 1.284521 -0.152170
H 1.536607 1.399470 -0.975823
9
Time step 2644
C -1.028407 0.082502 -0.203267
F -1.077937 0.295153 -1.592547
F -1.750022 0.953170 0.377078
F -1.633478 -1.114838 0.020628
S 0.900905 -0.148000 0.288810
O 0.945951 -0.196664 1.690037
O 1.654663 -1.099737 -0.481623
O 1.572539 1.283438 -0.152194
H 1.536039 1.402203 -0.981060
9
Time step 2645
C -1.029055 0.082901 -0.203635
F -1.079190 0.295252 -1.591625
F -1.748890 0.951938 0.376483
F -1.633709 -1.113946 0.020003
S 0.900500 -0.147811 0.289186
O 0.945721 -0.196108 1.690802
O 1.656341 -1.099778 -0.482156
O 1.572841 1.282351 -0.152156
H 1.535440 1.405059 -0.987263
9
Time step 2646
C -1.029698 0.083274 -0.204024
F -1.080443 0.295352 -1.590694
F -1.747758 0.950718 0.375893
F -1.633937 -1.113053 0.019377
S 0.900097 -0.147618 0.289555
O 0.945489 -0.195551 1.691586
O 1.658017 -1.099826 -0.482694
O 1.573141 1.281261 -0.152061
H 1.534811 1.408029 -0.994361
9
Time step 2647
C -1.030335 0.083619 -0.204436
F -1.081694 0.295451 -1.589754
F -1.746626 0.949508 0.375308
F -1.634161 -1.112157 0.018749
S 0.899694 -0.147420 0.289918
O 0.945253 -0.194995 1.692389
O 1.659688 -1.099882 -0.483239
O 1.573437 1.280167 -0.151913
H 1.534155 1.411105 -1.002281
9
Time step 2648
C -1.030968 0.083936 -0.204871
F -1.082944 0.295551 -1.588806
F -1.745495 0.948311 0.374731
F -1.634381 -1.111260 0.018121
S 0.899293 -0.147219 0.290274
O 0.945014 -0.194438 1.693211
O 1.661356 -1.099943 -0.483789
O 1.573730 1.279070 -0.151717
H 1.533474 1.414277 -1.010947
9
Time step 2649
C -1.031598 0.084225 -0.205333
F -1.084192 0.295650 -1.587850
F -1.744364 0.947127 0.374160
F -1.634595 -1.110360 0.017492
S 0.898893 -0.147015 0.290622
O 0.944771 -0.193882 1.694053
O 1.663019 -1.100011 -0.484344
O 1.574020 1.277969 -0.151477
H 1.532773 1.417534 -1.020279
9
Time step 2650
C -1.032225 0.084486 -0.205822
F -1.085438 0.295750 -1.586886
F -1.743234 0.945955 0.373598
F -1.634803 -1.109458 0.016863
S 0.898494 -0.146806 0.290963
O 0.944524 -0.193325 1.694915
O 1.664678 -1.100085 -0.484905
O 1.574306 1.276867 -0.151200
H 1.532054 1.420862 -1.030199
9
Time step 2651
C -1.032849 0.084719 -0.206340
F -1.086682 0.295851 -1.585913
F -1.742106 0.944795 0.373046
F -1.635005 -1.108554 0.016236
S 0.898097 -0.146596 0.291296
O 0.944274 -0.192767 1.695797
O 1.666331 -1.100164 -0.485470
O 1.574589 1.275763 -0.150889
H 1.531320 1.424249 -1.040625
9
Time step 2652
C -1.033467 0.084927 -0.206887
F -1.087924 0.295952 -1.584933
F -1.740981 0.943648 0.372502
F -1.635200 -1.107649 0.015608
S 0.897701 -0.146382 0.291621
O 0.944019 -0.192208 1.696698
O 1.667978 -1.100248 -0.486039
O 1.574869 1.274658 -0.150550
H 1.530574 1.427680 -1.051479
9
Time step 2653
C -1.034076 0.085108 -0.207459
F -1.089163 0.296054 -1.583946
F -1.739861 0.942514 0.371967
F -1.635391 -1.106744 0.014981
S 0.897307 -0.146168 0.291937
O 0.943762 -0.191647 1.697619
O 1.669618 -1.100338 -0.486612
O 1.575145 1.273555 -0.150187
H 1.529818 1.431141 -1.062680
9
Time step 2654
C -1.034676 0.085263 -0.208055
F -1.090399 0.296156 -1.582953
F -1.738745 0.941392 0.371441
F -1.635576 -1.105837 0.014355
S 0.896915 -0.145952 0.292244
O 0.943502 -0.191084 1.698559
O 1.671252 -1.100432 -0.487189
O 1.575417 1.272454 -0.149805
H 1.529054 1.434620 -1.074155
9
Time step 2655
C -1.035265 0.085390 -0.208672
F -1.091632 0.296260 -1.581953
F -1.737635 0.940285 0.370923
F -1.635758 -1.104931 0.013727
S 0.896524 -0.145736 0.292542
O 0.943239 -0.190520 1.699517
O 1.672878 -1.100530 -0.487767
O 1.575686 1.271356 -0.149408
H 1.528284 1.438103 -1.085832
9
Time step 2656
C -1.035846 0.085490 -0.209311
F -1.092861 0.296364 -1.580947
F -1.736529 0.939193 0.370414
F -1.635935 -1.104025 0.013099
S 0.896136 -0.145519 0.292830
O 0.942975 -0.189955 1.700492
O 1.674496 -1.100632 -0.488347
O 1.575950 1.270263 -0.149001
H 1.527509 1.441579 -1.097642
9
Time step 2657
C -1.036420 0.085562 -0.209972
F -1.094087 0.296469 -1.579935
F -1.735428 0.938115 0.369913
F -1.636107 -1.103120 0.012471
S 0.895751 -0.145301 0.293110
O 0.942708 -0.189389 1.701484
O 1.676106 -1.100738 -0.488929
O 1.576209 1.269174 -0.148587
H 1.526730 1.445035 -1.109525
9
Time step 2658
C -1.036986 0.085605 -0.210658
F -1.095309 0.296574 -1.578916
F -1.734332 0.937054 0.369422
F -1.636276 -1.102215 0.011843
S 0.895369 -0.145082 0.293381
O 0.942440 -0.188824 1.702493
O 1.677708 -1.100846 -0.489512
O 1.576463 1.268092 -0.148170
H 1.525951 1.448462 -1.121422
9
Time step 2659
C -1.037543 0.085621 -0.211371
F -1.096527 0.296679 -1.577892
F -1.733240 0.936009 0.368940
F -1.636440 -1.101310 0.011216
S 0.894989 -0.144862 0.293644
O 0.942170 -0.188259 1.703519
O 1.679301 -1.100957 -0.490097
O 1.576711 1.267017 -0.147754
H 1.525174 1.451848 -1.133279
9
Time step 2660
C -1.038090 0.085609 -0.212113
F -1.097742 0.296784 -1.576861
F -1.732154 0.934980 0.368469
F -1.636600 -1.100407 0.010589
S 0.894612 -0.144642 0.293898
O 0.941899 -0.187695 1.704562
O 1.680885 -1.101071 -0.490683
O 1.576955 1.265950 -0.147342
H 1.524402 1.455183 -1.145050
9
Time step 2661
C -1.038625 0.085569 -0.212884
F -1.098954 0.296888 -1.575824
F -1.731074 0.933968 0.368008
F -1.636757 -1.099506 0.009963
S 0.894237 -0.144421 0.294144
O 0.941626 -0.187132 1.705621
O 1.682460 -1.101187 -0.491270
O 1.577194 1.264892 -0.146936
H 1.523638 1.458457 -1.156688
9
Time step 2662
C -1.039146 0.085503 -0.213685
F -1.100163 0.296993 -1.574781
F -1.730000 0.932973 0.367559
F -1.636911 -1.098607 0.009338
S 0.893865 -0.144200 0.294382
O 0.941350 -0.186568 1.706698
O 1.684026 -1.101305 -0.491858
O 1.577428 1.263844 -0.146539
H 1.522884 1.461659 -1.168154
9
Time step 2663
C -1.039654 0.085407 -0.214514
F -1.101368 0.297097 -1.573733
F -1.728933 0.931998 0.367122
F -1.637062 -1.097712 0.008714
S 0.893497 -0.143980 0.294611
O 0.941072 -0.186005 1.707792
O 1.685583 -1.101426 -0.492448
O 1.577657 1.262807 -0.146152
H 1.522144 1.464779 -1.179409
9
Time step 2664
C -1.040149 0.085283 -0.215369
F -1.102569 0.297201 -1.572680
F -1.727872 0.931043 0.366697
F -1.637210 -1.096821 0.008089
S 0.893131 -0.143760 0.294830
O 0.940792 -0.185440 1.708901
O 1.687130 -1.101548 -0.493038
O 1.577881 1.261781 -0.145779
H 1.521419 1.467808 -1.190419
9
Time step 2665
C -1.040632 0.085129 -0.216248
F -1.103765 0.297305 -1.571624
F -1.726817 0.930108 0.366285
F -1.637355 -1.095936 0.007464
S 0.892768 -0.143542 0.295041
O 0.940508 -0.184874 1.710025
O 1.688666 -1.101672 -0.493630
O 1.578099 1.260767 -0.145420
H 1.520710 1.470737 -1.201153
9
Time step 2666
C -1.041103 0.084944 -0.217148
F -1.104958 0.297410 -1.570564
F -1.725767 0.929193 0.365885
F -1.637497 -1.095055 0.006839
S 0.892410 -0.143324 0.295244
O 0.940220 -0.184306 1.711163
O 1.690193 -1.101798 -0.494222
O 1.578313 1.259767 -0.145078
H 1.520020 1.473560 -1.211583
9
Time step 2667
C -1.041562 0.084727 -0.218069
F -1.106146 0.297515 -1.569503
F -1.724723 0.928299 0.365498
F -1.637637 -1.094179 0.006212
S 0.892055 -0.143107 0.295437
O 0.939929 -0.183735 1.712315
O 1.691709 -1.101924 -0.494815
O 1.578520 1.258779 -0.144754
H 1.519347 1.476269 -1.221684
9
Time step 2668
C -1.042006 0.084480 -0.219010
F -1.107330 0.297620 -1.568439
F -1.723686 0.927424 0.365124
F -1.637774 -1.093307 0.005584
S 0.891705 -0.142892 0.295622
O 0.939634 -0.183163 1.713481
O 1.693214 -1.102052 -0.495408
O 1.578723 1.257804 -0.144450
H 1.518692 1.478860 -1.231434
9
Time step 2669
C -1.042435 0.084201 -0.219970
F -1.108511 0.297727 -1.567373
F -1.722655 0.926568 0.364763
F -1.637910 -1.092439 0.004955
S 0.891359 -0.142678 0.295799
O 0.939336 -0.182589 1.714659
O 1.694707 -1.102180 -0.496000
O 1.578920 1.256844 -0.144167
H 1.518056 1.481331 -1.240814
9
Time step 2670
C -1.042850 0.083889 -0.220952
F -1.109689 0.297834 -1.566306
F -1.721630 0.925733 0.364414
F -1.638043 -1.091575 0.004325
S 0.891019 -0.142466 0.295967
O 0.939033 -0.182014 1.715850
O 1.696188 -1.102310 -0.496591
O 1.579113 1.255897 -0.143905
H 1.517436 1.483678 -1.249808
9
Time step 2671
C -1.043253 0.083546 -0.221957
F -1.110863 0.297942 -1.565237
F -1.720613 0.924918 0.364078
F -1.638173 -1.090716 0.003696
S 0.890683 -0.142254 0.296127
O 0.938728 -0.181438 1.717053
O 1.697657 -1.102439 -0.497180
O 1.579300 1.254966 -0.143666
H 1.516835 1.485899 -1.258400
9
Time step 2672
C -1.043645 0.083170 -0.222988
F -1.112034 0.298052 -1.564166
F -1.719601 0.924125 0.363755
F -1.638298 -1.089862 0.003067
S 0.890353 -0.142045 0.296278
O 0.938420 -0.180862 1.718268
O 1.699112 -1.102569 -0.497767
O 1.579482 1.254049 -0.143450
H 1.516251 1.487993 -1.266581
9
Time step 2673
C -1.044026 0.082762 -0.224046
F -1.113201 0.298163 -1.563094
F -1.718596 0.923354 0.363447
F -1.638419 -1.089014 0.002439
S 0.890028 -0.141838 0.296421
O 0.938108 -0.180287 1.719494
O 1.700555 -1.102698 -0.498349
O 1.579659 1.253147 -0.143258
H 1.515685 1.489958 -1.274341
9
Time step 2674
C -1.044395 0.082322 -0.225130
F -1.114365 0.298275 -1.562021
F -1.717598 0.922606 0.363152
F -1.638536 -1.088172 0.001813
S 0.889708 -0.141633 0.296555
O 0.937794 -0.179711 1.720731
O 1.701984 -1.102827 -0.498928
O 1.579830 1.252260 -0.143089
H 1.515137 1.491791 -1.281672
9
Time step 2675
C -1.044748 0.081851 -0.226239
F -1.115525 0.298388 -1.560947
F -1.716608 0.921880 0.362872
F -1.638649 -1.087335 0.001189
S 0.889393 -0.141430 0.296679
O 0.937476 -0.179136 1.721978
O 1.703400 -1.102955 -0.499503
O 1.579996 1.251388 -0.142944
H 1.514608 1.493491 -1.288569
9
Time step 2676
C -1.045081 0.081351 -0.227371
F -1.116683 0.298501 -1.559874
F -1.715627 0.921176 0.362606
F -1.638759 -1.086505 0.000565
S 0.889084 -0.141229 0.296794
O 0.937156 -0.178561 1.723234
O 1.704803 -1.103082 -0.500073
O 1.580155 1.250532 -0.142823
H 1.514099 1.495054 -1.295026
9
Time step 2677
C -1.045392 0.080821 -0.228522
F -1.117839 0.298615 -1.558801
F -1.714656 0.920494 0.362353
F -1.638867 -1.085679 -0.000058
S 0.888779 -0.141031 0.296901
O 0.936833 -0.177987 1.724499
O 1.706193 -1.103209 -0.500639
O 1.580309 1.249690 -0.142725
H 1.513609 1.496480 -1.301039
9
Time step 2678
C -1.045681 0.080260 -0.229693
F -1.118993 0.298729 -1.557731
F -1.713695 0.919834 0.362114
F -1.638972 -1.084860 -0.000680
S 0.888479 -0.140836 0.296998
O 0.936508 -0.177412 1.725773
O 1.707569 -1.103335 -0.501201
O 1.580458 1.248865 -0.142651
H 1.513139 1.497765 -1.306604
9
Time step 2679
C -1.045950 0.079669 -0.230884
F -1.120144 0.298844 -1.556662
F -1.712743 0.919197 0.361889
F -1.639075 -1.084046 -0.001301
S 0.888185 -0.140643 0.297086
O 0.936180 -0.176837 1.727056
O 1.708932 -1.103460 -0.501758
O 1.580600 1.248055 -0.142602
H 1.512688 1.498907 -1.311716
9
Time step 2680
C -1.046199 0.079045 -0.232097
F -1.121291 0.298961 -1.555596
F -1.711801 0.918583 0.361679
F -1.639176 -1.083240 -0.001922
S 0.887895 -0.140454 0.297166
O 0.935850 -0.176262 1.728347
O 1.710281 -1.103583 -0.502311
O 1.580738 1.247262 -0.142577
H 1.512254 1.499906 -1.316371
9
Time step 2681
C -1.046433 0.078387 -0.233334
F -1.122434 0.299079 -1.554530
F -1.710866 0.917994 0.361485
F -1.639274 -1.082440 -0.002541
S 0.887611 -0.140268 0.297238
O 0.935517 -0.175685 1.729645
O 1.711616 -1.103704 -0.502860
O 1.580871 1.246486 -0.142577
H 1.511836 1.500761 -1.320567
9
Time step 2682
C -1.046650 0.077695 -0.234596
F -1.123573 0.299198 -1.553467
F -1.709941 0.917429 0.361307
F -1.639371 -1.081648 -0.003158
S 0.887332 -0.140085 0.297301
O 0.935183 -0.175108 1.730951
O 1.712936 -1.103823 -0.503403
O 1.580998 1.245726 -0.142603
H 1.511433 1.501472 -1.324299
9
Time step 2683
C -1.046851 0.076971 -0.235883
F -1.124706 0.299319 -1.552405
F -1.709025 0.916887 0.361146
F -1.639465 -1.080864 -0.003774
S 0.887059 -0.139907 0.297357
O 0.934845 -0.174530 1.732264
O 1.714241 -1.103939 -0.503942
O 1.581120 1.244982 -0.142654
H 1.511044 1.502038 -1.327568
9
Time step 2684
C -1.047033 0.076218 -0.237194
F -1.125836 0.299441 -1.551345
F -1.708119 0.916369 0.361001
F -1.639558 -1.080086 -0.004389
S 0.886793 -0.139733 0.297404
O 0.934505 -0.173950 1.733583
O 1.715532 -1.104053 -0.504475
O 1.581238 1.244255 -0.142731
H 1.510670 1.502459 -1.330372
9
Time step 2685
C -1.047196 0.075438 -0.238526
F -1.126960 0.299563 -1.550289
F -1.707223 0.915872 0.360872
F -1.639651 -1.079317 -0.005002
S 0.886534 -0.139563 0.297442
O 0.934162 -0.173370 1.734910
O 1.716808 -1.104164 -0.505003
O 1.581351 1.243544 -0.142833
H 1.510309 1.502736 -1.332711
9
Time step 2686
C -1.047342 0.074634 -0.239876
F -1.128081 0.299686 -1.549237
F -1.706337 0.915397 0.360758
F -1.639742 -1.078556 -0.005614
S 0.886281 -0.139398 0.297472
O 0.933816 -0.172787 1.736243
O 1.718070 -1.104273 -0.505526
O 1.581459 1.242849 -0.142961
H 1.509965 1.502869 -1.334583
9
Time step 2687
C -1.047473 0.073806 -0.241242
F -1.129196 0.299809 -1.548190
F -1.705459 0.914943 0.360661
F -1.639832 -1.077804 -0.006226
S 0.886034 -0.139236 0.297494
O 0.933467 -0.172204 1.737583
O 1.719316 -1.104379 -0.506043
O 1.581562 1.242171 -0.143115
H 1.509637 1.502855 -1.335990
9
Time step 2688
C -1.047590 0.072952 -0.242622
F -1.130308 0.299934 -1.547150
F -1.704589 0.914512 0.360580
F -1.639921 -1.077062 -0.006837
S 0.885795 -0.139080 0.297509
O 0.933115 -0.171620 1.738928
O 1.720549 -1.104482 -0.506554
O 1.581661 1.241511 -0.143295
H 1.509329 1.502694 -1.336928
9
Time step 2689
C -1.047695 0.072072 -0.244017
F -1.131415 0.300059 -1.546116
F -1.703726 0.914104 0.360514
F -1.640009 -1.076332 -0.007448
S 0.885562 -0.138927 0.297515
O 0.932760 -0.171034 1.740278
O 1.721765 -1.104583 -0.507059
O 1.581756 1.240868 -0.143502
H 1.509041 1.502384 -1.337395
9
Time step 2690
C -1.047785 0.071163 -0.245427
F -1.132518 0.300187 -1.545088
F -1.702870 0.913721 0.360465
F -1.640097 -1.075613 -0.008059
S 0.885335 -0.138780 0.297514
O 0.932402 -0.170448 1.741632
O 1.722967 -1.104680 -0.507557
O 1.581847 1.240244 -0.143735
H 1.508774 1.501924 -1.337390
9
Time step 2691
C -1.047859 0.070224 -0.246853
F -1.133617 0.300318 -1.544066
F -1.702021 0.913362 0.360431
F -1.640184 -1.074905 -0.008668
S 0.885115 -0.138637 0.297506
O 0.932040 -0.169861 1.742989
O 1.724152 -1.104773 -0.508048
O 1.581934 1.239639 -0.143995
H 1.508530 1.501313 -1.336908
9
Time step 2692
C -1.047915 0.069255 -0.248294
F -1.134712 0.300450 -1.543049
F -1.701180 0.913027 0.360412
F -1.640271 -1.074208 -0.009277
S 0.884902 -0.138499 0.297491
O 0.931676 -0.169273 1.744348
O 1.725321 -1.104862 -0.508531
O 1.582016 1.239053 -0.144283
H 1.508309 1.500549 -1.335948
9
Time step 2693
C -1.047951 0.068257 -0.249750
F -1.135803 0.300585 -1.542037
F -1.700347 0.912717 0.360408
F -1.640359 -1.073523 -0.009885
S 0.884697 -0.138367 0.297469
O 0.931308 -0.168686 1.745709
O 1.726473 -1.104947 -0.509007
O 1.582094 1.238487 -0.144598
H 1.508110 1.499633 -1.334510
9
Time step 2694
C -1.047972 0.067234 -0.251221
F -1.136889 0.300721 -1.541031
F -1.699522 0.912432 0.360419
F -1.640445 -1.072850 -0.010491
S 0.884498 -0.138241 0.297439
O 0.930936 -0.168098 1.747072
O 1.727609 -1.105028 -0.509476
O 1.582166 1.237941 -0.144939
H 1.507933 1.498565 -1.332594
9
Time step 2695
C -1.047979 0.066188 -0.252704
F -1.137970 0.300859 -1.540032
F -1.698705 0.912170 0.360447
F -1.640531 -1.072189 -0.011096
S 0.884307 -0.138119 0.297403
O 0.930561 -0.167510 1.748435
O 1.728729 -1.105106 -0.509937
O 1.582233 1.237413 -0.145307
H 1.507777 1.497345 -1.330203
9
Time step 2696
C -1.047975 0.065121 -0.254199
F -1.139045 0.300997 -1.539042
F -1.697894 0.911931 0.360490
F -1.640615 -1.071541 -0.011699
S 0.884123 -0.138003 0.297361
O 0.930182 -0.166923 1.749799
O 1.729832 -1.105180 -0.510391
O 1.582294 1.236904 -0.145702
H 1.507643 1.495975 -1.327342
9
Time step 2697
C -1.047960 0.064034 -0.255705
F -1.140115 0.301136 -1.538063
F -1.697088 0.911715 0.360551
F -1.640696 -1.070906 -0.012301
S 0.883946 -0.137893 0.297313
O 0.929799 -0.166334 1.751161
O 1.730920 -1.105250 -0.510838
O 1.582350 1.236414 -0.146122
H 1.507530 1.494455 -1.324015
9
Time step 2698
C -1.047932 0.062927 -0.257219
F -1.141180 0.301277 -1.537094
F -1.696289 0.911522 0.360628
F -1.640775 -1.070285 -0.012902
S 0.883776 -0.137789 0.297261
O 0.929413 -0.165745 1.752522
O 1.731991 -1.105317 -0.511278
O 1.582401 1.235941 -0.146569
H 1.507440 1.492785 -1.320225
9
Time step 2699
C -1.047887 0.061800 -0.258741
F -1.142241 0.301420 -1.536136
F -1.695498 0.911353 0.360721
F -1.640853 -1.069678 -0.013501
S 0.883612 -0.137690 0.297204
O 0.929022 -0.165155 1.753879
O 1.733046 -1.105379 -0.511710
O 1.582448 1.235488 -0.147042
H 1.507374 1.490965 -1.315976
9
Time step 2700
C -1.047819 0.060650 -0.260269
F -1.143300 0.301565 -1.535189
F -1.694715 0.911206 0.360829
F -1.640931 -1.069083 -0.014100
S 0.883455 -0.137599 0.297142
O 0.928627 -0.164563 1.755232
O 1.734084 -1.105437 -0.512134
O 1.582490 1.235053 -0.147540
H 1.507332 1.488997 -1.311271
9
Time step 2701
C -1.047726 0.059478 -0.261802
F -1.144357 0.301714 -1.534253
F -1.693941 0.911083 0.360952
F -1.641009 -1.068502 -0.014697
S 0.883305 -0.137514 0.297077
O 0.928227 -0.163970 1.756580
O 1.735105 -1.105490 -0.512550
O 1.582528 1.234638 -0.148065
H 1.507315 1.486882 -1.306110
9
Time step 2702
C -1.047607 0.058282 -0.263339
F -1.145412 0.301866 -1.533329
F -1.693176 0.910982 0.361090
F -1.641088 -1.067935 -0.015292
S 0.883163 -0.137437 0.297006
O 0.927824 -0.163376 1.757924
O 1.736109 -1.105539 -0.512958
O 1.582562 1.234242 -0.148615
H 1.507324 1.484623 -1.300496
9
Time step 2703
C -1.047466 0.057063 -0.264880
F -1.146464 0.302020 -1.532416
F -1.692420 0.910904 0.361242
F -1.641168 -1.067381 -0.015886
S 0.883027 -0.137368 0.296931
O 0.927416 -0.162780 1.759263
O 1.737096 -1.105583 -0.513358
O 1.582592 1.233867 -0.149190
H 1.507358 1.482224 -1.294433
9
Time step 2704
C -1.047307 0.055823 -0.266424
F -1.147511 0.302177 -1.531517
F -1.691672 0.910849 0.361410
F -1.641249 -1.066840 -0.016479
S 0.882899 -0.137305 0.296852
O 0.927005 -0.162184 1.760598
O 1.738066 -1.105622 -0.513750
O 1.582618 1.233512 -0.149790
H 1.507416 1.479689 -1.287926
9
Time step 2705
C -1.047133 0.054562 -0.267971
F -1.148553 0.302336 -1.530631
F -1.690929 0.910817 0.361594
F -1.641330 -1.066314 -0.017069
S 0.882779 -0.137249 0.296767
O 0.926589 -0.161586 1.761930
O 1.739018 -1.105657 -0.514133
O 1.582638 1.233176 -0.150414
H 1.507497 1.477020 -1.280985
9
Time step 2706
C -1.046946 0.053282 -0.269522
F -1.149590 0.302496 -1.529760
F -1.690191 0.910807 0.361794
F -1.641411 -1.065801 -0.017658
S 0.882666 -0.137199 0.296678
O 0.926170 -0.160989 1.763258
O 1.739952 -1.105688 -0.514510
O 1.582653 1.232860 -0.151061
H 1.507600 1.474221 -1.273624
9
Time step 2707
C -1.046747 0.051984 -0.271075
F -1.150622 0.302657 -1.528903
F -1.689458 0.910819 0.362009
F -1.641492 -1.065303 -0.018244
S 0.882562 -0.137155 0.296584
O 0.925747 -0.160390 1.764581
O 1.740869 -1.105714 -0.514878
O 1.582662 1.232561 -0.151730
H 1.507724 1.471294 -1.265855
9
Time step 2708
C -1.046533 0.050669 -0.272631
F -1.151650 0.302820 -1.528060
F -1.688730 0.910851 0.362239
F -1.641574 -1.064818 -0.018829
S 0.882465 -0.137118 0.296486
O 0.925320 -0.159791 1.765900
O 1.741768 -1.105735 -0.515238
O 1.582665 1.232280 -0.152420
H 1.507867 1.468241 -1.257696
9
Time step 2709
C -1.046305 0.049340 -0.274190
F -1.152672 0.302985 -1.527230
F -1.688008 0.910903 0.362483
F -1.641658 -1.064349 -0.019411
S 0.882378 -0.137088 0.296384
O 0.924891 -0.159192 1.767214
O 1.742649 -1.105750 -0.515590
O 1.582663 1.232015 -0.153130
H 1.508030 1.465060 -1.249161
9
Time step 2710
C -1.046061 0.047998 -0.275751
F -1.153690 0.303153 -1.526414
F -1.687291 0.910975 0.362740
F -1.641743 -1.063894 -0.019991
S 0.882298 -0.137064 0.296279
O 0.924460 -0.158591 1.768522
O 1.743511 -1.105758 -0.515933
O 1.582656 1.231767 -0.153859
H 1.508213 1.461752 -1.240265
9
Time step 2711
C -1.045803 0.046645 -0.277314
F -1.154703 0.303323 -1.525611
F -1.686581 0.911067 0.363010
F -1.641830 -1.063457 -0.020569
S 0.882228 -0.137047 0.296169
O 0.924026 -0.157990 1.769824
O 1.744354 -1.105760 -0.516267
O 1.582643 1.231535 -0.154607
H 1.508417 1.458319 -1.231022
9
Time step 2712
C -1.045532 0.045281 -0.278877
F -1.155711 0.303495 -1.524823
F -1.685876 0.911177 0.363294
F -1.641918 -1.063036 -0.021143
S 0.882166 -0.137036 0.296056
O 0.923591 -0.157388 1.771119
O 1.745179 -1.105755 -0.516593
O 1.582625 1.231319 -0.155371
H 1.508642 1.454761 -1.221444
9
Time step 2713
C -1.045248 0.043908 -0.280439
F -1.156713 0.303669 -1.524051
F -1.685177 0.911308 0.363591
F -1.642009 -1.062634 -0.021716
S 0.882113 -0.137032 0.295940
O 0.923154 -0.156787 1.772407
O 1.745984 -1.105743 -0.516909
O 1.582603 1.231118 -0.156152
H 1.508889 1.451081 -1.211544
9
Time step 2714
C -1.044953 0.042527 -0.281999
F -1.157710 0.303847 -1.523297
F -1.684482 0.911459 0.363903
F -1.642102 -1.062251 -0.022285
S 0.882068 -0.137033 0.295821
O 0.922715 -0.156185 1.773686
O 1.746770 -1.105725 -0.517216
O 1.582576 1.230933 -0.156950
H 1.509157 1.447284 -1.201337
9
Time step 2715
C -1.044645 0.041136 -0.283553
F -1.158703 0.304027 -1.522562
F -1.683791 0.911629 0.364228
F -1.642196 -1.061887 -0.022852
S 0.882031 -0.137040 0.295699
O 0.922274 -0.155585 1.774957
O 1.747537 -1.105702 -0.517513
O 1.582545 1.230765 -0.157762
H 1.509445 1.443379 -1.190842
9
Time step 2716
C -1.044326 0.039738 -0.285101
F -1.159691 0.304210 -1.521846
F -1.683102 0.911817 0.364567
F -1.642292 -1.061542 -0.023417
S 0.882003 -0.137052 0.295576
O 0.921830 -0.154985 1.776218
O 1.748286 -1.105674 -0.517800
O 1.582508 1.230611 -0.158589
H 1.509751 1.439374 -1.180083
9
Time step 2717
C -1.043996 0.038332 -0.286641
F -1.160676 0.304396 -1.521149
F -1.682415 0.912025 0.364919
F -1.642390 -1.061217 -0.023979
S 0.881983 -0.137070 0.295452
O 0.921382 -0.154386 1.777469
O 1.749016 -1.105641 -0.518078
O 1.582466 1.230474 -0.159428
H 1.510074 1.435282 -1.169088
9
Time step 2718
C -1.043656 0.036919 -0.288171
F -1.161656 0.304586 -1.520472
F -1.681730 0.912249 0.365282
F -1.642489 -1.060910 -0.024539
S 0.881972 -0.137095 0.295326
O 0.920931 -0.153787 1.778709
O 1.749727 -1.105602 -0.518345
O 1.582420 1.230351 -0.160278
H 1.510412 1.431115 -1.157891
9
Time step 2719
C -1.043309 0.035501 -0.289689
F -1.162631 0.304779 -1.519813
F -1.681045 0.912491 0.365658
F -1.642589 -1.060622 -0.025097
S 0.881969 -0.137126 0.295199
O 0.920476 -0.153188 1.779937
O 1.750421 -1.105559 -0.518603
O 1.582369 1.230242 -0.161136
H 1.510762 1.426887 -1.146530
9
Time step 2720
C -1.042954 0.034078 -0.291195
F -1.163602 0.304975 -1.519175
F -1.680361 0.912749 0.366046
F -1.642690 -1.060352 -0.025653
S 0.881974 -0.137165 0.295071
O 0.920017 -0.152587 1.781152
O 1.751096 -1.105510 -0.518850
O 1.582314 1.230148 -0.162000
H 1.511124 1.422611 -1.135048
9
Time step 2721
C -1.042590 0.032650 -0.292687
F -1.164568 0.305175 -1.518558
F -1.679679 0.913024 0.366446
F -1.642793 -1.060102 -0.026207
S 0.881988 -0.137212 0.294942
O 0.919553 -0.151985 1.782354
O 1.751753 -1.105457 -0.519088
O 1.582256 1.230068 -0.162867
H 1.511495 1.418298 -1.123493
9
Time step 2722
C -1.042215 0.031218 -0.294165
F -1.165531 0.305379 -1.517962
F -1.678999 0.913317 0.366859
F -1.642897 -1.059870 -0.026759
S 0.882011 -0.137268 0.294812
O 0.919086 -0.151380 1.783543
O 1.752392 -1.105398 -0.519315
O 1.582193 1.230000 -0.163732
H 1.511875 1.413957 -1.111916
9
Time step 2723
C -1.041828 0.029780 -0.295629
F -1.166490 0.305586 -1.517388
F -1.678323 0.913626 0.367286
F -1.643003 -1.059658 -0.027310
S 0.882042 -0.137333 0.294683
O 0.918614 -0.150774 1.784718
O 1.753014 -1.105334 -0.519532
O 1.582128 1.229946 -0.164594
H 1.512263 1.409598 -1.100374
9
Time step 2724
C -1.041425 0.028338 -0.297079
F -1.167447 0.305798 -1.516837
F -1.677649 0.913954 0.367726
F -1.643111 -1.059465 -0.027858
S 0.882082 -0.137407 0.294553
O 0.918138 -0.150166 1.785878
O 1.753618 -1.105264 -0.519738
O 1.582060 1.229903 -0.165448
H 1.512657 1.405230 -1.088929
9
Time step 2725
C -1.041008 0.026891 -0.298514
F -1.168401 0.306014 -1.516309
F -1.676979 0.914298 0.368180
F -1.643223 -1.059291 -0.028404
S 0.882130 -0.137489 0.294423
O 0.917657 -0.149556 1.787023
O 1.754205 -1.105188 -0.519934
O 1.581988 1.229871 -0.166290
H 1.513054 1.400860 -1.077649
9
Time step 2726
C -1.040578 0.025440 -0.299934
F -1.169352 0.306234 -1.515803
F -1.676312 0.914659 0.368646
F -1.643336 -1.059137 -0.028948
S 0.882188 -0.137579 0.294293
O 0.917172 -0.148945 1.788152
O 1.754774 -1.105106 -0.520120
O 1.581913 1.229849 -0.167115
H 1.513450 1.396502 -1.066607
9
Time step 2727
C -1.040137 0.023986 -0.301338
F -1.170298 0.306457 -1.515319
F -1.675646 0.915036 0.369125
F -1.643453 -1.059001 -0.029489
S 0.882254 -0.137678 0.294164
O 0.916683 -0.148334 1.789266
O 1.755325 -1.105018 -0.520294
O 1.581835 1.229836 -0.167919
H 1.513839 1.392167 -1.055884
9
Time step 2728
C -1.039686 0.022530 -0.302724
F -1.171240 0.306684 -1.514858
F -1.674982 0.915428 0.369616
F -1.643571 -1.058884 -0.030027
S 0.882329 -0.137784 0.294035
O 0.916189 -0.147723 1.790365
O 1.755857 -1.104922 -0.520458
O 1.581754 1.229830 -0.168697
H 1.514213 1.387872 -1.045565
9
Time step 2729
C -1.039226 0.021073 -0.304089
F -1.172178 0.306914 -1.514420
F -1.674318 0.915835 0.370117
F -1.643693 -1.058786 -0.030563
S 0.882414 -0.137898 0.293906
O 0.915691 -0.147113 1.791449
O 1.756372 -1.104819 -0.520612
O 1.581671 1.229832 -0.169442
H 1.514564 1.383633 -1.035738
9
Time step 2730
C -1.038756 0.019616 -0.305433
F -1.173110 0.307148 -1.514006
F -1.673655 0.916258 0.370627
F -1.643818 -1.058708 -0.031096
S 0.882508 -0.138020 0.293777
O 0.915189 -0.146503 1.792517
O 1.756867 -1.104709 -0.520756
O 1.581585 1.229839 -0.170149
H 1.514884 1.379465 -1.026497
9
Time step 2731
C -1.038275 0.018161 -0.306755
F -1.174039 0.307386 -1.513615
F -1.672993 0.916694 0.371148
F -1.643946 -1.058651 -0.031625
S 0.882611 -0.138150 0.293649
O 0.914683 -0.145892 1.793570
O 1.757344 -1.104592 -0.520890
O 1.581497 1.229850 -0.170811
H 1.515163 1.375385 -1.017932
9
Time step 2732
C -1.037782 0.016710 -0.308056
F -1.174963 0.307628 -1.513249
F -1.672331 0.917145 0.371677
F -1.644078 -1.058614 -0.032151
S 0.882723 -0.138288 0.293521
O 0.914174 -0.145282 1.794608
O 1.757803 -1.104468 -0.521016
O 1.581408 1.229865 -0.171423
H 1.515396 1.371406 -1.010135
9
Time step 2733
C -1.037279 0.015265 -0.309338
F -1.175882 0.307874 -1.512907
F -1.671668 0.917609 0.372215
F -1.644214 -1.058600 -0.032672
S 0.882844 -0.138434 0.293395
O 0.913660 -0.144671 1.795630
O 1.758243 -1.104337 -0.521132
O 1.581317 1.229883 -0.171980
H 1.515577 1.367540 -1.003188
9
Time step 2734
C -1.036768 0.013828 -0.310601
F -1.176796 0.308123 -1.512589
F -1.671005 0.918085 0.372763
F -1.644353 -1.058608 -0.033189
S 0.882974 -0.138588 0.293272
O 0.913144 -0.144060 1.796634
O 1.758664 -1.104199 -0.521240
O 1.581226 1.229903 -0.172477
H 1.515700 1.363796 -0.997170
9
Time step 2735
C -1.036251 0.012401 -0.311846
F -1.177705 0.308377 -1.512294
F -1.670341 0.918574 0.373321
F -1.644495 -1.058638 -0.033701
S 0.883111 -0.138750 0.293151
O 0.912624 -0.143449 1.797621
O 1.759067 -1.104055 -0.521338
O 1.581135 1.229924 -0.172909
H 1.515763 1.360185 -0.992149
9
Time step 2736
C -1.035728 0.010982 -0.313070
F -1.178608 0.308634 -1.512025
F -1.669675 0.919075 0.373888
F -1.644641 -1.058692 -0.034210
S 0.883258 -0.138920 0.293033
O 0.912102 -0.142837 1.798591
O 1.759451 -1.103904 -0.521428
O 1.581044 1.229947 -0.173275
H 1.515761 1.356714 -0.988183
9
Time step 2737
C -1.035198 0.009571 -0.314272
F -1.179506 0.308895 -1.511781
F -1.669008 0.919587 0.374464
F -1.644791 -1.058767 -0.034715
S 0.883412 -0.139097 0.292919
O 0.911576 -0.142226 1.799542
O 1.759816 -1.103747 -0.521508
O 1.580955 1.229972 -0.173571
H 1.515693 1.353390 -0.985321
9
Time step 2738
C -1.034660 0.008167 -0.315447
F -1.180400 0.309160 -1.511563
F -1.668339 0.920110 0.375050
F -1.644946 -1.058865 -0.035218
S 0.883576 -0.139281 0.292809
O 0.911047 -0.141616 1.800475
O 1.760161 -1.103583 -0.521579
O 1.580867 1.229998 -0.173796
H 1.515557 1.350220 -0.983600
9
Time step 2739
C -1.034113 0.006768 -0.316593
F -1.181290 0.309431 -1.511373
F -1.667670 0.920646 0.375643
F -1.645106 -1.058985 -0.035718
S 0.883749 -0.139472 0.292702
O 0.910515 -0.141007 1.801390
O 1.760489 -1.103413 -0.521640
O 1.580781 1.230026 -0.173949
H 1.515351 1.347207 -0.983043
9
Time step 2740
C -1.033558 0.005377 -0.317709
F -1.182176 0.309706 -1.511210
F -1.666998 0.921193 0.376244
F -1.645270 -1.059128 -0.036215
S 0.883930 -0.139670 0.292598
O 0.909979 -0.140400 1.802288
O 1.760797 -1.103238 -0.521691
O 1.580697 1.230056 -0.174029
H 1.515076 1.344353 -0.983664
9
Time step 2741
C -1.032996 0.003994 -0.318796
F -1.183058 0.309985 -1.511074
F -1.666325 0.921752 0.376853
F -1.645439 -1.059293 -0.036710
S 0.884121 -0.139875 0.292498
O 0.909440 -0.139794 1.803167
O 1.761087 -1.103056 -0.521731
O 1.580613 1.230086 -0.174035
H 1.514732 1.341657 -0.985459
9
Time step 2742
C -1.032429 0.002623 -0.319853
F -1.183936 0.310270 -1.510964
F -1.665649 0.922321 0.377470
F -1.645610 -1.059482 -0.037202
S 0.884321 -0.140087 0.292400
O 0.908896 -0.139189 1.804028
O 1.761359 -1.102869 -0.521762
O 1.580530 1.230118 -0.173970
H 1.514321 1.339115 -0.988414
9
Time step 2743
C -1.031861 0.001266 -0.320882
F -1.184810 0.310558 -1.510881
F -1.664970 0.922901 0.378094
F -1.645784 -1.059694 -0.037691
S 0.884529 -0.140307 0.292305
O 0.908349 -0.138585 1.804871
O 1.761613 -1.102676 -0.521781
O 1.580446 1.230150 -0.173834
H 1.513845 1.336718 -0.992498
9
Time step 2744
C -1.031290 -0.000077 -0.321882
F -1.185678 0.310850 -1.510824
F -1.664287 0.923490 0.378727
F -1.645961 -1.059929 -0.038178
S 0.884746 -0.140534 0.292212
O 0.907798 -0.137981 1.805694
O 1.761851 -1.102477 -0.521789
O 1.580362 1.230183 -0.173629
H 1.513309 1.334456 -0.997669
9
Time step 2745
C -1.030715 -0.001405 -0.322851
F -1.186543 0.311147 -1.510794
F -1.663601 0.924088 0.379368
F -1.646139 -1.060186 -0.038661
S 0.884971 -0.140768 0.292121
O 0.907244 -0.137377 1.806498
O 1.762072 -1.102273 -0.521785
O 1.580277 1.230217 -0.173359
H 1.512718 1.332316 -1.003869
9
Time step 2746
C -1.030133 -0.002720 -0.323788
F -1.187405 0.311449 -1.510792
F -1.662912 0.924694 0.380018
F -1.646321 -1.060466 -0.039143
S 0.885203 -0.141010 0.292032
O 0.906686 -0.136772 1.807283
O 1.762276 -1.102063 -0.521771
O 1.580192 1.230253 -0.173029
H 1.512077 1.330282 -1.011033
9
Time step 2747
C -1.029542 -0.004024 -0.324691
F -1.188265 0.311756 -1.510820
F -1.662221 0.925310 0.380675
F -1.646506 -1.060766 -0.039622
S 0.885443 -0.141259 0.291947
O 0.906124 -0.136167 1.808047
O 1.762464 -1.101847 -0.521745
O 1.580105 1.230292 -0.172642
H 1.511393 1.328342 -1.019084
9
Time step 2748
C -1.028942 -0.005318 -0.325561
F -1.189122 0.312070 -1.510876
F -1.661527 0.925935 0.381341
F -1.646695 -1.061089 -0.040098
S 0.885692 -0.141515 0.291864
O 0.905558 -0.135563 1.808790
O 1.762636 -1.101626 -0.521707
O 1.580018 1.230335 -0.172205
H 1.510674 1.326481 -1.027942
9
Time step 2749
C -1.028333 -0.006602 -0.326398
F -1.189978 0.312389 -1.510962
F -1.660831 0.926568 0.382014
F -1.646889 -1.061434 -0.040571
S 0.885949 -0.141778 0.291785
O 0.904989 -0.134960 1.809513
O 1.762790 -1.101399 -0.521659
O 1.579928 1.230384 -0.171723
H 1.509927 1.324687 -1.037523
9
Time step 2750
C -1.027719 -0.007874 -0.327204
F -1.190830 0.312713 -1.511075
F -1.660131 0.927211 0.382695
F -1.647087 -1.061800 -0.041041
S 0.886214 -0.142047 0.291710
O 0.904416 -0.134358 1.810214
O 1.762928 -1.101167 -0.521599
O 1.579836 1.230440 -0.171200
H 1.509160 1.322950 -1.047743
9
Time step 2751
C -1.027100 -0.009132 -0.327981
F -1.191678 0.313041 -1.511215
F -1.659427 0.927861 0.383383
F -1.647289 -1.062189 -0.041508
S 0.886489 -0.142322 0.291638
O 0.903840 -0.133757 1.810894
O 1.763047 -1.100929 -0.521528
O 1.579740 1.230503 -0.170643
H 1.508382 1.321261 -1.058518
9
Time step 2752
C -1.026479 -0.010374 -0.328727
F -1.192521 0.313372 -1.511382
F -1.658718 0.928518 0.384078
F -1.647496 -1.062601 -0.041971
S 0.886773 -0.142604 0.291571
O 0.903260 -0.133159 1.811551
O 1.763148 -1.100686 -0.521446
O 1.579640 1.230573 -0.170055
H 1.507599 1.319612 -1.069767
9
Time step 2753
C -1.025854 -0.011597 -0.329444
F -1.193360 0.313707 -1.511574
F -1.658006 0.929181 0.384778
F -1.647708 -1.063034 -0.042431
S 0.887066 -0.142892 0.291508
O 0.902678 -0.132561 1.812186
O 1.763230 -1.100438 -0.521354
O 1.579536 1.230652 -0.169442
H 1.506816 1.317997 -1.081411
9
Time step 2754
C -1.025225 -0.012804 -0.330130
F -1.194194 0.314045 -1.511794
F -1.657289 0.929851 0.385484
F -1.647925 -1.063489 -0.042886
S 0.887370 -0.143186 0.291450
O 0.902092 -0.131965 1.812797
O 1.763292 -1.100185 -0.521253
O 1.579427 1.230739 -0.168807
H 1.506038 1.316407 -1.093375
9
Time step 2755
C -1.024590 -0.013993 -0.330784
F -1.195025 0.314388 -1.512040
F -1.656569 0.930526 0.386195
F -1.648146 -1.063966 -0.043338
S 0.887683 -0.143487 0.291396
O 0.901503 -0.131369 1.813386
O 1.763336 -1.099927 -0.521142
O 1.579312 1.230836 -0.168155
H 1.505271 1.314837 -1.105587
9
Time step 2756
C -1.023950 -0.015167 -0.331406
F -1.195852 0.314737 -1.512314
F -1.655845 0.931208 0.386910
F -1.648371 -1.064465 -0.043785
S 0.888005 -0.143796 0.291348
O 0.900910 -0.130773 1.813951
O 1.763361 -1.099664 -0.521022
O 1.579193 1.230942 -0.167491
H 1.504518 1.313281 -1.117975
9
Time step 2757
C -1.023306 -0.016324 -0.331998
F -1.196676 0.315090 -1.512614
F -1.655117 0.931896 0.387631
F -1.648599 -1.064987 -0.044227
S 0.888336 -0.144112 0.291306
O 0.900314 -0.130176 1.814494
O 1.763368 -1.099397 -0.520894
O 1.579068 1.231058 -0.166818
H 1.503785 1.311730 -1.130473
9
Time step 2758
C -1.022660 -0.017465 -0.332560
F -1.197495 0.315450 -1.512942
F -1.654385 0.932589 0.388356
F -1.648831 -1.065531 -0.044664
S 0.888676 -0.144436 0.291269
O 0.899715 -0.129579 1.815013
O 1.763357 -1.099125 -0.520758
O 1.578939 1.231186 -0.166141
H 1.503074 1.310180 -1.143018
9
Time step 2759
C -1.022012 -0.018589 -0.333092
F -1.198310 0.315813 -1.513295
F -1.653647 0.933289 0.389087
F -1.649068 -1.066098 -0.045097
S 0.889023 -0.144768 0.291237
O 0.899112 -0.128981 1.815509
O 1.763330 -1.098849 -0.520613
O 1.578804 1.231326 -0.165465
H 1.502391 1.308623 -1.155551
9
Time step 2760
C -1.021363 -0.019692 -0.333595
F -1.199119 0.316181 -1.513674
F -1.652904 0.933994 0.389824
F -1.649309 -1.066687 -0.045526
S 0.889378 -0.145108 0.291212
O 0.898507 -0.128382 1.815983
O 1.763285 -1.098567 -0.520460
O 1.578665 1.231479 -0.164792
H 1.501738 1.307056 -1.168021
9
Time step 2761
C -1.020710 -0.020776 -0.334066
F -1.199925 0.316552 -1.514080
F -1.652156 0.934704 0.390566
F -1.649555 -1.067298 -0.045952
S 0.889740 -0.145456 0.291191
O 0.897900 -0.127784 1.816434
O 1.763224 -1.098281 -0.520298
O 1.578519 1.231644 -0.164126
H 1.501118 1.305473 -1.180382
9
Time step 2762
C -1.020052 -0.021839 -0.334504
F -1.200726 0.316927 -1.514512
F -1.651402 0.935419 0.391313
F -1.649808 -1.067933 -0.046376
S 0.890109 -0.145810 0.291176
O 0.897291 -0.127186 1.816863
O 1.763146 -1.097990 -0.520126
O 1.578368 1.231821 -0.163469
H 1.500532 1.303871 -1.192593
9
Time step 2763
C -1.019387 -0.022882 -0.334907
F -1.201523 0.317306 -1.514970
F -1.650643 0.936138 0.392065
F -1.650068 -1.068589 -0.046796
S 0.890486 -0.146171 0.291166
O 0.896679 -0.126589 1.817269
O 1.763051 -1.097694 -0.519946
O 1.578210 1.232010 -0.162824
H 1.499982 1.302246 -1.204620
9
Time step 2764
C -1.018717 -0.023903 -0.335275
F -1.202317 0.317690 -1.515456
F -1.649879 0.936860 0.392820
F -1.650332 -1.069268 -0.047214
S 0.890871 -0.146538 0.291160
O 0.896065 -0.125994 1.817654
O 1.762939 -1.097394 -0.519756
O 1.578045 1.232210 -0.162192
H 1.499467 1.300596 -1.216431
9
Time step 2765
C -1.018044 -0.024903 -0.335609
F -1.203106 0.318077 -1.515968
F -1.649109 0.937587 0.393579
F -1.650602 -1.069969 -0.047627
S 0.891264 -0.146910 0.291160
O 0.895448 -0.125400 1.818017
O 1.762811 -1.097089 -0.519557
O 1.577874 1.232421 -0.161576
H 1.498987 1.298920 -1.227997
9
Time step 2766
C -1.017370 -0.025880 -0.335909
F -1.203891 0.318469 -1.516507
F -1.648334 0.938317 0.394342
F -1.650874 -1.070692 -0.048037
S 0.891664 -0.147288 0.291163
O 0.894829 -0.124808 1.818359
O 1.762667 -1.096780 -0.519349
O 1.577696 1.232641 -0.160976
H 1.498543 1.297217 -1.239289
9
Time step 2767
C -1.016697 -0.026835 -0.336176
F -1.204672 0.318864 -1.517071
F -1.647552 0.939051 0.395109
F -1.651150 -1.071437 -0.048444
S 0.892071 -0.147671 0.291172
O 0.894207 -0.124217 1.818679
O 1.762506 -1.096467 -0.519132
O 1.577512 1.232872 -0.160395
H 1.498136 1.295489 -1.250279
9
Time step 2768
C -1.016025 -0.027767 -0.336409
F -1.205448 0.319262 -1.517660
F -1.646765 0.939787 0.395879
F -1.651427 -1.072202 -0.048847
S 0.892485 -0.148059 0.291184
O 0.893582 -0.123628 1.818978
O 1.762329 -1.096150 -0.518906
O 1.577321 1.233113 -0.159834
H 1.497768 1.293734 -1.260940
9
Time step 2769
C -1.015351 -0.028677 -0.336608
F -1.206221 0.319663 -1.518273
F -1.645971 0.940527 0.396652
F -1.651708 -1.072988 -0.049247
S 0.892906 -0.148453 0.291201
O 0.892954 -0.123041 1.819256
O 1.762136 -1.095829 -0.518672
O 1.577124 1.233365 -0.159294
H 1.497441 1.291955 -1.271248
9
Time step 2770
C -1.014673 -0.029567 -0.336772
F -1.206991 0.320067 -1.518911
F -1.645173 0.941270 0.397429
F -1.651993 -1.073794 -0.049646
S 0.893334 -0.148853 0.291221
O 0.892324 -0.122454 1.819511
O 1.761927 -1.095504 -0.518428
O 1.576921 1.233628 -0.158777
H 1.497159 1.290151 -1.281178
9
Time step 2771
C -1.013988 -0.030436 -0.336902
F -1.207759 0.320475 -1.519574
F -1.644369 0.942016 0.398208
F -1.652281 -1.074619 -0.050042
S 0.893768 -0.149257 0.291247
O 0.891690 -0.121869 1.819745
O 1.761703 -1.095175 -0.518176
O 1.576713 1.233902 -0.158284
H 1.496924 1.288322 -1.290712
9
Time step 2772
C -1.013297 -0.031285 -0.336998
F -1.208524 0.320886 -1.520260
F -1.643560 0.942764 0.398991
F -1.652574 -1.075465 -0.050436
S 0.894208 -0.149667 0.291276
O 0.891054 -0.121285 1.819956
O 1.761462 -1.094844 -0.517915
O 1.576499 1.234188 -0.157816
H 1.496740 1.286469 -1.299833
9
Time step 2773
C -1.012601 -0.032115 -0.337063
F -1.209286 0.321300 -1.520969
F -1.642745 0.943515 0.399777
F -1.652871 -1.076331 -0.050826
S 0.894655 -0.150082 0.291311
O 0.890415 -0.120702 1.820145
O 1.761205 -1.094510 -0.517646
O 1.576278 1.234485 -0.157376
H 1.496609 1.284591 -1.308528
9
Time step 2774
C -1.011903 -0.032924 -0.337097
F -1.210045 0.321718 -1.521701
F -1.641924 0.944267 0.400567
F -1.653172 -1.077217 -0.051213
S 0.895109 -0.150500 0.291351
O 0.889772 -0.120122 1.820311
O 1.760932 -1.094175 -0.517367
O 1.576052 1.234793 -0.156962
H 1.496533 1.282689 -1.316787
9
Time step 2775
C -1.011206 -0.033710 -0.337102
F -1.210799 0.322139 -1.522455
F -1.641097 0.945021 0.401361
F -1.653476 -1.078122 -0.051597
S 0.895569 -0.150921 0.291396
O 0.889126 -0.119544 1.820453
O 1.760645 -1.093838 -0.517081
O 1.575818 1.235112 -0.156576
H 1.496511 1.280765 -1.324602
9
Time step 2776
C -1.010510 -0.034473 -0.337076
F -1.211548 0.322562 -1.523231
F -1.640264 0.945776 0.402157
F -1.653784 -1.079047 -0.051979
S 0.896036 -0.151345 0.291447
O 0.888477 -0.118970 1.820572
O 1.760343 -1.093500 -0.516786
O 1.575577 1.235442 -0.156218
H 1.496544 1.278821 -1.331966
9
Time step 2777
C -1.009817 -0.035212 -0.337019
F -1.212293 0.322987 -1.524028
F -1.639423 0.946532 0.402956
F -1.654094 -1.079990 -0.052358
S 0.896510 -0.151772 0.291504
O 0.887825 -0.118397 1.820665
O 1.760026 -1.093162 -0.516482
O 1.575328 1.235782 -0.155889
H 1.496630 1.276859 -1.338874
9
Time step 2778
C -1.009128 -0.035925 -0.336930
F -1.213034 0.323412 -1.524845
F -1.638575 0.947287 0.403758
F -1.654407 -1.080952 -0.052735
S 0.896991 -0.152202 0.291566
O 0.887170 -0.117828 1.820735
O 1.759694 -1.092823 -0.516171
O 1.575070 1.236131 -0.155587
H 1.496770 1.274880 -1.345322
9
Time step 2779
C -1.008441 -0.036614 -0.336809
F -1.213769 0.323840 -1.525683
F -1.637720 0.948043 0.404560
F -1.654723 -1.081931 -0.053111
S 0.897479 -0.152636 0.291635
O 0.886513 -0.117261 1.820779
O 1.759347 -1.092483 -0.515851
O 1.574805 1.236491 -0.155314
H 1.496961 1.272885 -1.351305
9
Time step 2780
C -1.007759 -0.037276 -0.336659
F -1.214500 0.324270 -1.526540
F -1.636857 0.948799 0.405364
F -1.655041 -1.082930 -0.053483
S 0.897974 -0.153073 0.291709
O 0.885855 -0.116696 1.820799
O 1.758986 -1.092143 -0.515522
O 1.574530 1.236860 -0.155070
H 1.497203 1.270873 -1.356819
9
Time step 2781
C -1.007080 -0.037913 -0.336483
F -1.215227 0.324702 -1.527416
F -1.635988 0.949555 0.406169
F -1.655362 -1.083947 -0.053852
S 0.898476 -0.153514 0.291788
O 0.885194 -0.116133 1.820794
O 1.758609 -1.091801 -0.515185
O 1.574247 1.237239 -0.154853
H 1.497497 1.268843 -1.361861
9
Time step 2782
C -1.006404 -0.038525 -0.336283
F -1.215948 0.325139 -1.528310
F -1.635111 0.950310 0.406976
F -1.655684 -1.084982 -0.054217
S 0.898985 -0.153959 0.291874
O 0.884530 -0.115571 1.820766
O 1.758218 -1.091458 -0.514840
O 1.573955 1.237628 -0.154666
H 1.497843 1.266794 -1.366429
9
Time step 2783
C -1.005731 -0.039112 -0.336062
F -1.216665 0.325578 -1.529220
F -1.634228 0.951063 0.407783
F -1.656010 -1.086036 -0.054577
S 0.899501 -0.154407 0.291965
O 0.883865 -0.115011 1.820714
O 1.757811 -1.091116 -0.514487
O 1.573654 1.238027 -0.154507
H 1.498241 1.264726 -1.370520
9
Time step 2784
C -1.005059 -0.039674 -0.335817
F -1.217377 0.326021 -1.530148
F -1.633337 0.951816 0.408592
F -1.656338 -1.087108 -0.054932
S 0.900023 -0.154859 0.292061
O 0.883197 -0.114453 1.820638
O 1.757391 -1.090773 -0.514127
O 1.573345 1.238435 -0.154377
H 1.498691 1.262642 -1.374134
9
Time step 2785
C -1.004387 -0.040213 -0.335546
F -1.218085 0.326466 -1.531094
F -1.632440 0.952567 0.409402
F -1.656671 -1.088197 -0.055285
S 0.900551 -0.155314 0.292163
O 0.882526 -0.113896 1.820541
O 1.756957 -1.090429 -0.513758
O 1.573027 1.238853 -0.154276
H 1.499193 1.260544 -1.377269
9
Time step 2786
C -1.003716 -0.040727 -0.335246
F -1.218787 0.326913 -1.532058
F -1.631535 0.953316 0.410214
F -1.657008 -1.089302 -0.055635
S 0.901085 -0.155771 0.292269
O 0.881854 -0.113342 1.820420
O 1.756510 -1.090086 -0.513382
O 1.572702 1.239281 -0.154205
H 1.499745 1.258434 -1.379926
9
Time step 2787
C -1.003049 -0.041218 -0.334916
F -1.219485 0.327362 -1.533042
F -1.630623 0.954064 0.411027
F -1.657349 -1.090425 -0.055984
S 0.901625 -0.156231 0.292381
O 0.881180 -0.112790 1.820277
O 1.756049 -1.089742 -0.512999
O 1.572369 1.239718 -0.154163
H 1.500346 1.256316 -1.382106
9
Time step 2788
C -1.002389 -0.041683 -0.334554
F -1.220177 0.327811 -1.534044
F -1.629703 0.954811 0.411842
F -1.657692 -1.091563 -0.056331
S 0.902171 -0.156695 0.292497
O 0.880505 -0.112241 1.820111
O 1.755575 -1.089398 -0.512607
O 1.572028 1.240164 -0.154151
H 1.500994 1.254191 -1.383812
9
Time step 2789
C -1.001739 -0.042122 -0.334165
F -1.220863 0.328260 -1.535064
F -1.628775 0.955557 0.412659
F -1.658037 -1.092717 -0.056676
S 0.902722 -0.157161 0.292618
O 0.879828 -0.111693 1.819923
O 1.755089 -1.089052 -0.512208
O 1.571680 1.240619 -0.154167
H 1.501689 1.252060 -1.385044
9
Time step 2790
C -1.001099 -0.042533 -0.333751
F -1.221543 0.328710 -1.536100
F -1.627838 0.956301 0.413477
F -1.658384 -1.093888 -0.057019
S 0.903280 -0.157631 0.292745
O 0.879150 -0.111148 1.819713
O 1.754589 -1.088706 -0.511801
O 1.571324 1.241083 -0.154211
H 1.502428 1.249920 -1.385804
9
Time step 2791
C -1.000467 -0.042918 -0.333316
F -1.222218 0.329159 -1.537151
F -1.626894 0.957044 0.414296
F -1.658732 -1.095074 -0.057360
S 0.903843 -0.158105 0.292876
O 0.878469 -0.110604 1.819479
O 1.754077 -1.088359 -0.511387
O 1.570960 1.241555 -0.154283
H 1.503212 1.247772 -1.386092
9
Time step 2792
C -0.999840 -0.043278 -0.332861
F -1.222888 0.329609 -1.538213
F -1.625942 0.957784 0.415116
F -1.659081 -1.096274 -0.057698
S 0.904412 -0.158581 0.293012
O 0.877786 -0.110061 1.819222
O 1.753552 -1.088013 -0.510967
O 1.570589 1.242036 -0.154382
H 1.504039 1.245615 -1.385907
9
Time step 2793
C -0.999212 -0.043615 -0.332387
F -1.223554 0.330060 -1.539288
F -1.624984 0.958521 0.415937
F -1.659433 -1.097487 -0.058034
S 0.904986 -0.159060 0.293153
O 0.877101 -0.109518 1.818943
O 1.753016 -1.087668 -0.510540
O 1.570210 1.242523 -0.154508
H 1.504909 1.243451 -1.385247
9
Time step 2794
C -0.998583 -0.043932 -0.331893
F -1.224218 0.330513 -1.540374
F -1.624019 0.959257 0.416758
F -1.659788 -1.098713 -0.058367
S 0.905564 -0.159540 0.293300
O 0.876413 -0.108976 1.818640
O 1.752467 -1.087324 -0.510108
O 1.569823 1.243019 -0.154663
H 1.505822 1.241282 -1.384109
9
Time step 2795
C -0.997954 -0.044231 -0.331376
F -1.224877 0.330966 -1.541472
F -1.623049 0.959989 0.417578
F -1.660144 -1.099951 -0.058699
S 0.906147 -0.160022 0.293453
O 0.875723 -0.108435 1.818315
O 1.751907 -1.086983 -0.509671
O 1.569430 1.243523 -0.154845
H 1.506778 1.239112 -1.382492
9
Time step 2796
C -0.997327 -0.044510 -0.330836
F -1.225532 0.331422 -1.542585
F -1.622071 0.960720 0.418398
F -1.660503 -1.101202 -0.059028
S 0.906734 -0.160506 0.293612
O 0.875032 -0.107896 1.817967
O 1.751336 -1.086643 -0.509230
O 1.569030 1.244034 -0.155056
H 1.507776 1.236945 -1.380392
9
Time step 2797
C -0.996707 -0.044770 -0.330274
F -1.226182 0.331878 -1.543711
F -1.621087 0.961448 0.419219
F -1.660862 -1.102465 -0.059354
S 0.907324 -0.160991 0.293778
O 0.874339 -0.107360 1.817597
O 1.750753 -1.086305 -0.508784
O 1.568624 1.244553 -0.155297
H 1.508817 1.234784 -1.377807
9
Time step 2798
C -0.996098 -0.045006 -0.329691
F -1.226825 0.332335 -1.544852
F -1.620095 0.962173 0.420040
F -1.661221 -1.103742 -0.059678
S 0.907917 -0.161477 0.293951
O 0.873646 -0.106826 1.817204
O 1.750158 -1.085969 -0.508333
O 1.568212 1.245081 -0.155568
H 1.509899 1.232632 -1.374738
9
Time step 2799
C -0.995501 -0.045217 -0.329087
F -1.227463 0.332790 -1.546006
F -1.619094 0.962895 0.420862
F -1.661579 -1.105032 -0.060000
S 0.908514 -0.161964 0.294132
O 0.872953 -0.106296 1.816789
O 1.749551 -1.085635 -0.507878
O 1.567795 1.245616 -0.155869
H 1.511022 1.230490 -1.371186
9
Time step 2800
C -0.994915 -0.045400 -0.328466
F -1.228094 0.333244 -1.547170
F -1.618086 0.963613 0.421683
F -1.661937 -1.106335 -0.060321
S 0.909114 -0.162451 0.294320
O 0.872258 -0.105769 1.816353
O 1.748933 -1.085302 -0.507419
O 1.567372 1.246158 -0.156201
H 1.512186 1.228358 -1.367153
9
Time step 2801
C -0.994337 -0.045555 -0.327827
F -1.228720 0.333696 -1.548343
F -1.617070 0.964327 0.422503
F -1.662296 -1.107649 -0.060640
S 0.909718 -0.162940 0.294516
O 0.871563 -0.105245 1.815895
O 1.748304 -1.084972 -0.506955
O 1.566942 1.246708 -0.156563
H 1.513391 1.226236 -1.362644
9
Time step 2802
C -0.993765 -0.045682 -0.327169
F -1.229342 0.334145 -1.549524
F -1.616046 0.965036 0.423323
F -1.662655 -1.108974 -0.060960
S 0.910326 -0.163428 0.294718
O 0.870867 -0.104726 1.815415
O 1.747665 -1.084646 -0.506486
O 1.566506 1.247264 -0.156954
H 1.514636 1.224125 -1.357661
9
Time step 2803
C -0.993199 -0.045783 -0.326494
F -1.229960 0.334592 -1.550712
F -1.615016 0.965740 0.424140
F -1.663015 -1.110309 -0.061279
S 0.910937 -0.163916 0.294928
O 0.870170 -0.104209 1.814912
O 1.747016 -1.084323 -0.506013
O 1.566062 1.247825 -0.157375
H 1.515921 1.222028 -1.352210
9
Time step 2804
C -0.992642 -0.045859 -0.325800
F -1.230573 0.335038 -1.551908
F -1.613977 0.966438 0.424956
F -1.663375 -1.111654 -0.061599
S 0.911552 -0.164402 0.295145
O 0.869471 -0.103696 1.814388
O 1.746357 -1.084004 -0.505536
O 1.565610 1.248392 -0.157824
H 1.517246 1.219946 -1.346295
9
Time step 2805
C -0.992095 -0.045911 -0.325088
F -1.231180 0.335483 -1.553110
F -1.612931 0.967132 0.425771
F -1.663734 -1.113008 -0.061917
S 0.912171 -0.164888 0.295368
O 0.868771 -0.103186 1.813841
O 1.745688 -1.083690 -0.505053
O 1.565150 1.248963 -0.158302
H 1.518609 1.217884 -1.339921
9
Time step 2806
C -0.991562 -0.045941 -0.324359
F -1.231782 0.335929 -1.554322
F -1.611876 0.967820 0.426584
F -1.664091 -1.114372 -0.062234
S 0.912793 -0.165371 0.295598
O 0.868070 -0.102679 1.813271
O 1.745011 -1.083381 -0.504566
O 1.564683 1.249538 -0.158808
H 1.520011 1.215843 -1.333094
9
Time step 2807
C -0.991043 -0.045949 -0.323614
F -1.232376 0.336374 -1.555540
F -1.610813 0.968502 0.427395
F -1.664446 -1.115745 -0.062548
S 0.913419 -0.165852 0.295835
O 0.867368 -0.102177 1.812680
O 1.744324 -1.083076 -0.504075
O 1.564207 1.250117 -0.159342
H 1.521451 1.213827 -1.325821
9
Time step 2808
C -0.990539 -0.045934 -0.322854
F -1.232964 0.336820 -1.556767
F -1.609741 0.969180 0.428206
F -1.664800 -1.117128 -0.062860
S 0.914048 -0.166330 0.296078
O 0.866665 -0.101679 1.812068
O 1.743627 -1.082777 -0.503578
O 1.563724 1.250700 -0.159903
H 1.522928 1.211836 -1.318110
9
Time step 2809
C -0.990049 -0.045899 -0.322079
F -1.233545 0.337265 -1.557999
F -1.608660 0.969852 0.429014
F -1.665152 -1.118520 -0.063169
S 0.914679 -0.166806 0.296326
O 0.865960 -0.101186 1.811436
O 1.742921 -1.082483 -0.503078
O 1.563232 1.251286 -0.160491
H 1.524441 1.209871 -1.309970
9
Time step 2810
C -0.989571 -0.045841 -0.321290
F -1.234118 0.337709 -1.559237
F -1.607571 0.970519 0.429822
F -1.665502 -1.119921 -0.063477
S 0.915313 -0.167280 0.296581
O 0.865254 -0.100697 1.810784
O 1.742207 -1.082193 -0.502574
O 1.562734 1.251876 -0.161106
H 1.525990 1.207934 -1.301411
9
Time step 2811
C -0.989106 -0.045761 -0.320487
F -1.234684 0.338152 -1.560480
F -1.606474 0.971182 0.430628
F -1.665852 -1.121330 -0.063784
S 0.915950 -0.167750 0.296841
O 0.864546 -0.100212 1.810111
O 1.741484 -1.081910 -0.502066
O 1.562227 1.252470 -0.161746
H 1.527573 1.206025 -1.292442
9
Time step 2812
C -0.988653 -0.045657 -0.319671
F -1.235243 0.338591 -1.561727
F -1.605369 0.971839 0.431433
F -1.666200 -1.122748 -0.064090
S 0.916588 -0.168218 0.297107
O 0.863838 -0.099731 1.809418
O 1.740754 -1.081631 -0.501554
O 1.561713 1.253068 -0.162411
H 1.529191 1.204148 -1.283076
9
Time step 2813
C -0.988213 -0.045530 -0.318841
F -1.235794 0.339028 -1.562978
F -1.604256 0.972491 0.432238
F -1.666547 -1.124172 -0.064395
S 0.917228 -0.168683 0.297378
O 0.863128 -0.099253 1.808705
O 1.740017 -1.081359 -0.501040
O 1.561191 1.253668 -0.163099
H 1.530843 1.202304 -1.273325
9
Time step 2814
C -0.987786 -0.045379 -0.318001
F -1.236338 0.339462 -1.564233
F -1.603135 0.973137 0.433043
F -1.666894 -1.125604 -0.064700
S 0.917870 -0.169147 0.297656
O 0.862419 -0.098778 1.807972
O 1.739273 -1.081093 -0.500522
O 1.560662 1.254272 -0.163810
H 1.532530 1.200496 -1.263206
9
Time step 2815
C -0.987372 -0.045204 -0.317151
F -1.236876 0.339893 -1.565490
F -1.602006 0.973777 0.433846
F -1.667239 -1.127042 -0.065003
S 0.918512 -0.169610 0.297940
O 0.861709 -0.098305 1.807218
O 1.738524 -1.080832 -0.500001
O 1.560126 1.254879 -0.164543
H 1.534251 1.198727 -1.252737
9
Time step 2816
C -0.986969 -0.045007 -0.316294
F -1.237408 0.340321 -1.566749
F -1.600869 0.974411 0.434649
F -1.667583 -1.128486 -0.065306
S 0.919155 -0.170071 0.298231
O 0.860998 -0.097834 1.806443
O 1.737769 -1.080576 -0.499478
O 1.559583 1.255489 -0.165296
H 1.536008 1.196999 -1.241939
9
Time step 2817
C -0.986578 -0.044790 -0.315430
F -1.237933 0.340748 -1.568009
F -1.599725 0.975037 0.435449
F -1.667925 -1.129935 -0.065606
S 0.919798 -0.170531 0.298531
O 0.860288 -0.097366 1.805649
O 1.737009 -1.080327 -0.498954
O 1.559033 1.256103 -0.166068
H 1.537801 1.195314 -1.230839
9
Time step 2818
C -0.986199 -0.044554 -0.314560
F -1.238453 0.341173 -1.569270
F -1.598572 0.975658 0.436247
F -1.668266 -1.131388 -0.065906
S 0.920441 -0.170988 0.298838
O 0.859578 -0.096900 1.804835
O 1.736243 -1.080083 -0.498429
O 1.558477 1.256719 -0.166857
H 1.539629 1.193671 -1.219464
9
Time step 2819
C -0.985834 -0.044301 -0.313684
F -1.238966 0.341595 -1.570530
F -1.597412 0.976272 0.437043
F -1.668604 -1.132845 -0.066205
S 0.921084 -0.171443 0.299153
O 0.858867 -0.096437 1.804002
O 1.735471 -1.079845 -0.497903
O 1.557916 1.257338 -0.167663
H 1.541494 1.192070 -1.207846
9
Time step 2820
C -0.985485 -0.044029 -0.312801
F -1.239472 0.342015 -1.571791
F -1.596244 0.976880 0.437837
F -1.668939 -1.134307 -0.066502
S 0.921727 -0.171895 0.299477
O 0.858157 -0.095977 1.803149
O 1.734693 -1.079615 -0.497378
O 1.557348 1.257960 -0.168481
H 1.543397 1.190510 -1.196021
9
Time step 2821
C -0.985152 -0.043739 -0.311910
F -1.239971 0.342431 -1.573053
F -1.595068 0.977483 0.438628
F -1.669270 -1.135773 -0.066799
S 0.922371 -0.172343 0.299809
O 0.857447 -0.095521 1.802277
O 1.733909 -1.079392 -0.496853
O 1.556773 1.258585 -0.169311
H 1.545337 1.188988 -1.184027
9
Time step 2822
C -0.984837 -0.043428 -0.311010
F -1.240462 0.342844 -1.574315
F -1.593886 0.978079 0.439418
F -1.669598 -1.137242 -0.067096
S 0.923014 -0.172787 0.300149
O 0.856737 -0.095069 1.801385
O 1.733121 -1.079177 -0.496327
O 1.556193 1.259213 -0.170149
H 1.547317 1.187501 -1.171905
9
Time step 2823
C -0.984536 -0.043097 -0.310101
F -1.240948 0.343254 -1.575578
F -1.592696 0.978668 0.440206
F -1.669922 -1.138714 -0.067393
S 0.923658 -0.173227 0.300496
O 0.856026 -0.094621 1.800474
O 1.732327 -1.078971 -0.495802
O 1.555605 1.259844 -0.170992
H 1.549336 1.186045 -1.159700
9
Time step 2824
C -0.984248 -0.042744 -0.309182
F -1.241427 0.343661 -1.576841
F -1.591500 0.979249 0.440990
F -1.670243 -1.140189 -0.067689
S 0.924302 -0.173663 0.300851
O 0.855316 -0.094177 1.799544
O 1.731529 -1.078773 -0.495276
O 1.555010 1.260478 -0.171838
H 1.551396 1.184617 -1.147461
9
Time step 2825
C -0.983973 -0.042370 -0.308254
F -1.241901 0.344064 -1.578105
F -1.590296 0.979822 0.441772
F -1.670560 -1.141665 -0.067985
S 0.924946 -0.174095 0.301214
O 0.854604 -0.093737 1.798595
O 1.730728 -1.078585 -0.494750
O 1.554408 1.261115 -0.172683
H 1.553498 1.183213 -1.135239
9
Time step 2826
C -0.983712 -0.041976 -0.307316
F -1.242370 0.344465 -1.579367
F -1.589085 0.980387 0.442551
F -1.670874 -1.143143 -0.068280
S 0.925590 -0.174523 0.301584
O 0.853892 -0.093299 1.797628
O 1.729923 -1.078405 -0.494224
O 1.553798 1.261754 -0.173523
H 1.555642 1.181829 -1.123094
9
Time step 2827
C -0.983469 -0.041564 -0.306371
F -1.242833 0.344863 -1.580628
F -1.587866 0.980943 0.443326
F -1.671183 -1.144622 -0.068576
S 0.926235 -0.174947 0.301960
O 0.853178 -0.092866 1.796644
O 1.729115 -1.078234 -0.493698
O 1.553180 1.262397 -0.174356
H 1.557829 1.180463 -1.111087
9
Time step 2828
C -0.983246 -0.041135 -0.305421
F -1.243289 0.345259 -1.581889
F -1.586639 0.981491 0.444099
F -1.671488 -1.146102 -0.068870
S 0.926879 -0.175366 0.302344
O 0.852463 -0.092436 1.795642
O 1.728304 -1.078072 -0.493173
O 1.552556 1.263042 -0.175176
H 1.560060 1.179113 -1.099283
9
Time step 2829
C -0.983045 -0.040689 -0.304467
F -1.243739 0.345651 -1.583147
F -1.585402 0.982032 0.444871
F -1.671787 -1.147581 -0.069163
S 0.927523 -0.175780 0.302734
O 0.851747 -0.092010 1.794625
O 1.727491 -1.077920 -0.492648
O 1.551924 1.263691 -0.175979
H 1.562336 1.177774 -1.087755
9
Time step 2830
C -0.982865 -0.040228 -0.303510
F -1.244181 0.346039 -1.584403
F -1.584157 0.982565 0.445640
F -1.672081 -1.149062 -0.069455
S 0.928167 -0.176187 0.303131
O 0.851030 -0.091588 1.793591
O 1.726675 -1.077778 -0.492124
O 1.551285 1.264343 -0.176760
H 1.564658 1.176442 -1.076576
9
Time step 2831
C -0.982703 -0.039752 -0.302553
F -1.244615 0.346424 -1.585656
F -1.582904 0.983091 0.446408
F -1.672372 -1.150542 -0.069746
S 0.928810 -0.176589 0.303535
O 0.850312 -0.091172 1.792543
O 1.725856 -1.077645 -0.491600
O 1.550638 1.264998 -0.177516
H 1.567028 1.175111 -1.065825
9
Time step 2832
C -0.982556 -0.039260 -0.301595
F -1.245043 0.346806 -1.586904
F -1.581643 0.983609 0.447173
F -1.672658 -1.152023 -0.070036
S 0.929451 -0.176983 0.303945
O 0.849593 -0.090760 1.791479
O 1.725035 -1.077522 -0.491077
O 1.549984 1.265657 -0.178241
H 1.569449 1.173775 -1.055582
9
Time step 2833
C -0.982423 -0.038752 -0.300636
F -1.245463 0.347184 -1.588146
F -1.580375 0.984120 0.447935
F -1.672941 -1.153503 -0.070325
S 0.930090 -0.177372 0.304361
O 0.848874 -0.090353 1.790401
O 1.724211 -1.077408 -0.490555
O 1.549322 1.266320 -0.178931
H 1.571923 1.172425 -1.045928
9
Time step 2834
C -0.982304 -0.038228 -0.299677
F -1.245876 0.347560 -1.589382
F -1.579100 0.984622 0.448694
F -1.673220 -1.154984 -0.070614
S 0.930726 -0.177754 0.304783
O 0.848156 -0.089951 1.789309
O 1.723387 -1.077305 -0.490033
O 1.548652 1.266988 -0.179581
H 1.574457 1.171053 -1.036946
9
Time step 2835
C -0.982201 -0.037688 -0.298716
F -1.246281 0.347932 -1.590612
F -1.577817 0.985116 0.449449
F -1.673494 -1.156464 -0.070903
S 0.931359 -0.178131 0.305213
O 0.847438 -0.089553 1.788203
O 1.722561 -1.077211 -0.489512
O 1.547973 1.267661 -0.180186
H 1.577056 1.169649 -1.028718
9
Time step 2836
C -0.982118 -0.037131 -0.297755
F -1.246677 0.348303 -1.591836
F -1.576526 0.985601 0.450202
F -1.673763 -1.157944 -0.071191
S 0.931988 -0.178502 0.305649
O 0.846722 -0.089159 1.787083
O 1.721735 -1.077127 -0.488992
O 1.547285 1.268339 -0.180743
H 1.579727 1.168206 -1.021323
9
Time step 2837
C -0.982057 -0.036557 -0.296793
F -1.247064 0.348670 -1.593055
F -1.575227 0.986078 0.450952
F -1.674026 -1.159423 -0.071479
S 0.932612 -0.178867 0.306093
O 0.846006 -0.088768 1.785948
O 1.720909 -1.077053 -0.488475
O 1.546588 1.269024 -0.181245
H 1.582478 1.166718 -1.014834
9
Time step 2838
C -0.982016 -0.035966 -0.295830
F -1.247442 0.349033 -1.594268
F -1.573921 0.986546 0.451700
F -1.674283 -1.160901 -0.071768
S 0.933232 -0.179227 0.306545
O 0.845293 -0.088379 1.784799
O 1.720083 -1.076990 -0.487960
O 1.545882 1.269714 -0.181688
H 1.585318 1.165178 -1.009319
9
Time step 2839
C -0.981995 -0.035360 -0.294868
F -1.247812 0.349392 -1.595475
F -1.572608 0.987005 0.452444
F -1.674535 -1.162378 -0.072056
S 0.933848 -0.179581 0.307006
O 0.844581 -0.087995 1.783635
O 1.719258 -1.076938 -0.487448
O 1.545167 1.270411 -0.182069
H 1.588255 1.163580 -1.004836
9
Time step 2840
C -0.981991 -0.034738 -0.293907
F -1.248175 0.349747 -1.596674
F -1.571290 0.987457 0.453186
F -1.674781 -1.163852 -0.072346
S 0.934460 -0.179927 0.307475
O 0.843871 -0.087614 1.782458
O 1.718432 -1.076898 -0.486941
O 1.544442 1.271114 -0.182385
H 1.591297 1.161918 -1.001430
9
Time step 2841
C -0.982003 -0.034101 -0.292950
F -1.248533 0.350097 -1.597866
F -1.569965 0.987900 0.453924
F -1.675022 -1.165323 -0.072636
S 0.935068 -0.180265 0.307952
O 0.843162 -0.087238 1.781267
O 1.717608 -1.076871 -0.486437
O 1.543706 1.271823 -0.182632
H 1.594449 1.160186 -0.999135
9
Time step 2842
C -0.982033 -0.033451 -0.291995
F -1.248883 0.350442 -1.599050
F -1.568633 0.988335 0.454658
F -1.675259 -1.166792 -0.072926
S 0.935673 -0.180595 0.308438
O 0.842456 -0.086867 1.780063
O 1.716784 -1.076857 -0.485938
O 1.542959 1.272540 -0.182810
H 1.597720 1.158378 -0.997970
9
Time step 2843
C -0.982082 -0.032786 -0.291045
F -1.249227 0.350781 -1.600225
F -1.567294 0.988762 0.455388
F -1.675489 -1.168256 -0.073217
S 0.936273 -0.180915 0.308932
O 0.841750 -0.086502 1.778847
O 1.715960 -1.076857 -0.485443
O 1.542201 1.273265 -0.182918
H 1.601113 1.156484 -0.997938
9
Time step 2844
C -0.982155 -0.032109 -0.290098
F -1.249562 0.351115 -1.601392
F -1.565947 0.989181 0.456115
F -1.675712 -1.169717 -0.073507
S 0.936870 -0.181225 0.309433
O 0.841046 -0.086143 1.777621
O 1.715138 -1.076869 -0.484952
O 1.541432 1.273997 -0.182957
H 1.604632 1.154498 -0.999031
9
Time step 2845
C -0.982253 -0.031418 -0.289155
F -1.249889 0.351444 -1.602552
F -1.564591 0.989591 0.456840
F -1.675928 -1.171173 -0.073797
S 0.937463 -0.181526 0.309940
O 0.840342 -0.085790 1.776385
O 1.714317 -1.076896 -0.484466
O 1.540650 1.274738 -0.182928
H 1.608282 1.152413 -1.001226
9
Time step 2846
C -0.982376 -0.030717 -0.288214
F -1.250206 0.351768 -1.603705
F -1.563228 0.989992 0.457562
F -1.676137 -1.172625 -0.074087
S 0.938051 -0.181818 0.310453
O 0.839639 -0.085442 1.775141
O 1.713499 -1.076936 -0.483984
O 1.539857 1.275488 -0.182834
H 1.612064 1.150225 -1.004490
9
Time step 2847
C -0.982519 -0.030006 -0.287276
F -1.250516 0.352088 -1.604852
F -1.561858 0.990385 0.458282
F -1.676339 -1.174070 -0.074375
S 0.938635 -0.182102 0.310971
O 0.838935 -0.085099 1.773888
O 1.712682 -1.076989 -0.483508
O 1.539052 1.276246 -0.182678
H 1.615982 1.147932 -1.008778
9
Time step 2848
C -0.982679 -0.029288 -0.286339
F -1.250818 0.352404 -1.605991
F -1.560483 0.990769 0.458999
F -1.676535 -1.175509 -0.074664
S 0.939214 -0.182377 0.311493
O 0.838231 -0.084761 1.772628
O 1.711869 -1.077055 -0.483036
O 1.538234 1.277013 -0.182462
H 1.620035 1.145537 -1.014036
9
Time step 2849
C -0.982852 -0.028563 -0.285403
F -1.251114 0.352718 -1.607122
F -1.559103 0.991145 0.459713
F -1.676725 -1.176941 -0.074952
S 0.939789 -0.182644 0.312021
O 0.837527 -0.084426 1.771361
O 1.711058 -1.077134 -0.482569
O 1.537404 1.277787 -0.182191
H 1.624223 1.143045 -1.020202
9
Time step 2850
C -0.983038 -0.027833 -0.284468
F -1.251404 0.353028 -1.608243
F -1.557719 0.991513 0.460422
F -1.676909 -1.178366 -0.075241
S 0.940359 -0.182903 0.312552
O 0.836823 -0.084096 1.770088
O 1.710250 -1.077226 -0.482107
O 1.536561 1.278568 -0.181870
H 1.628543 1.140465 -1.027203
9
Time step 2851
C -0.983238 -0.027096 -0.283536
F -1.251687 0.353336 -1.609354
F -1.556329 0.991873 0.461126
F -1.677087 -1.179784 -0.075529
S 0.940924 -0.183154 0.313087
O 0.836119 -0.083769 1.768807
O 1.709446 -1.077333 -0.481649
O 1.535706 1.279355 -0.181501
H 1.632992 1.137810 -1.034964
9
Time step 2852
C -0.983454 -0.026351 -0.282607
F -1.251963 0.353640 -1.610454
F -1.554932 0.992223 0.461826
F -1.677259 -1.181196 -0.075818
S 0.941483 -0.183395 0.313625
O 0.835416 -0.083447 1.767521
O 1.708646 -1.077453 -0.481195
O 1.534839 1.280146 -0.181092
H 1.637562 1.135095 -1.043402
9
Time step 2853
C -0.983688 -0.025594 -0.281683
F -1.252232 0.353941 -1.611545
F -1.553529 0.992564 0.462523
F -1.677424 -1.182603 -0.076106
S 0.942036 -0.183627 0.314167
O 0.834714 -0.083128 1.766229
O 1.707851 -1.077588 -0.480745
O 1.533961 1.280941 -0.180646
H 1.642247 1.132332 -1.052433
9
Time step 2854
C -0.983943 -0.024825 -0.280763
F -1.252493 0.354237 -1.612625
F -1.552119 0.992896 0.463215
F -1.677581 -1.184004 -0.076394
S 0.942581 -0.183850 0.314712
O 0.834014 -0.082813 1.764931
O 1.707059 -1.077737 -0.480301
O 1.533072 1.281738 -0.180169
H 1.647036 1.129538 -1.061974
9
Time step 2855
C -0.984215 -0.024042 -0.279850
F -1.252746 0.354528 -1.613696
F -1.550702 0.993218 0.463905
F -1.677733 -1.185400 -0.076682
S 0.943120 -0.184063 0.315261
O 0.833316 -0.082503 1.763629
O 1.706273 -1.077902 -0.479861
O 1.532175 1.282538 -0.179666
H 1.651918 1.126725 -1.071945
9
Time step 2856
C -0.984503 -0.023248 -0.278946
F -1.252992 0.354815 -1.614755
F -1.549279 0.993530 0.464592
F -1.677878 -1.186790 -0.076970
S 0.943651 -0.184266 0.315814
O 0.832621 -0.082197 1.762322
O 1.705490 -1.078082 -0.479427
O 1.531269 1.283339 -0.179143
H 1.656884 1.123905 -1.082268
9
Time step 2857
C -0.984804 -0.022442 -0.278053
F -1.253232 0.355097 -1.615804
F -1.547852 0.993832 0.465275
F -1.678017 -1.188173 -0.077257
S 0.944175 -0.184459 0.316372
O 0.831927 -0.081895 1.761011
O 1.704711 -1.078277 -0.478998
O 1.530357 1.284140 -0.178602
H 1.661923 1.121089 -1.092871
9
Time step 2858
C -0.985120 -0.021629 -0.277172
F -1.253464 0.355373 -1.616839
F -1.546419 0.994126 0.465956
F -1.678150 -1.189549 -0.077544
S 0.944693 -0.184641 0.316933
O 0.831236 -0.081597 1.759697
O 1.703936 -1.078487 -0.478576
O 1.529437 1.284942 -0.178050
H 1.667023 1.118287 -1.103685
9
Time step 2859
C -0.985452 -0.020809 -0.276303
F -1.253689 0.355645 -1.617862
F -1.544981 0.994411 0.466634
F -1.678276 -1.190918 -0.077830
S 0.945203 -0.184813 0.317498
O 0.830545 -0.081303 1.758381
O 1.703165 -1.078714 -0.478160
O 1.528512 1.285741 -0.177489
H 1.672175 1.115508 -1.114647
9
Time step 2860
C -0.985802 -0.019984 -0.275447
F -1.253907 0.355912 -1.618872
F -1.543538 0.994687 0.467310
F -1.678395 -1.192278 -0.078117
S 0.945708 -0.184973 0.318065
O 0.829856 -0.081013 1.757063
O 1.702398 -1.078956 -0.477751
O 1.527580 1.286538 -0.176923
H 1.677369 1.112763 -1.125697
9
Time step 2861
C -0.986172 -0.019154 -0.274603
F -1.254116 0.356174 -1.619870
F -1.542089 0.994955 0.467984
F -1.678505 -1.193630 -0.078403
S 0.946205 -0.185123 0.318635
O 0.829168 -0.080726 1.755743
O 1.701635 -1.079215 -0.477349
O 1.526644 1.287332 -0.176356
H 1.682597 1.110062 -1.136778
9
Time step 2862
C -0.986563 -0.018319 -0.273768
F -1.254317 0.356431 -1.620856
F -1.540634 0.995214 0.468656
F -1.678607 -1.194973 -0.078690
S 0.946696 -0.185261 0.319207
O 0.828480 -0.080442 1.754423
O 1.700877 -1.079490 -0.476955
O 1.525703 1.288122 -0.175789
H 1.687850 1.107415 -1.147838
9
Time step 2863
C -0.986972 -0.017479 -0.272941
F -1.254511 0.356683 -1.621830
F -1.539174 0.995465 0.469325
F -1.678701 -1.196306 -0.078977
S 0.947179 -0.185387 0.319780
O 0.827793 -0.080161 1.753104
O 1.700125 -1.079783 -0.476567
O 1.524758 1.288906 -0.175227
H 1.693119 1.104831 -1.158828
9
Time step 2864
C -0.987397 -0.016634 -0.272122
F -1.254699 0.356930 -1.622793
F -1.537709 0.995706 0.469990
F -1.678788 -1.197631 -0.079263
S 0.947656 -0.185502 0.320353
O 0.827107 -0.079884 1.751787
O 1.699378 -1.080092 -0.476188
O 1.523810 1.289685 -0.174672
H 1.698397 1.102319 -1.169702
9
Time step 2865
C -0.987836 -0.015786 -0.271311
F -1.254879 0.357173 -1.623743
F -1.536239 0.995938 0.470650
F -1.678868 -1.198946 -0.079549
S 0.948125 -0.185605 0.320927
O 0.826421 -0.079611 1.750473
O 1.698637 -1.080418 -0.475815
O 1.522861 1.290459 -0.174127
H 1.703675 1.099886 -1.180420
9
Time step 2866
C -0.988290 -0.014935 -0.270510
F -1.255053 0.357411 -1.624680
F -1.534766 0.996161 0.471307
F -1.678940 -1.200251 -0.079833
S 0.948586 -0.185695 0.321500
O 0.825736 -0.079344 1.749163
O 1.697903 -1.080762 -0.475449
O 1.521910 1.291227 -0.173595
H 1.708942 1.097539 -1.190942
9
Time step 2867
C -0.988760 -0.014082 -0.269720
F -1.255221 0.357646 -1.625603
F -1.533289 0.996377 0.471959
F -1.679006 -1.201547 -0.080116
S 0.949041 -0.185774 0.322072
O 0.825051 -0.079081 1.747857
O 1.697174 -1.081122 -0.475090
O 1.520958 1.291989 -0.173077
H 1.714191 1.095281 -1.201235
9
Time step 2868
C -0.989248 -0.013229 -0.268943
F -1.255380 0.357877 -1.626512
F -1.531807 0.996584 0.472607
F -1.679063 -1.202832 -0.080398
S 0.949488 -0.185841 0.322641
O 0.824366 -0.078824 1.746558
O 1.696452 -1.081498 -0.474737
O 1.520006 1.292745 -0.172575
H 1.719412 1.093116 -1.211269
9
Time step 2869
C -0.989755 -0.012375 -0.268179
F -1.255532 0.358103 -1.627408
F -1.530321 0.996784 0.473252
F -1.679112 -1.204108 -0.080678
S 0.949927 -0.185897 0.323207
O 0.823682 -0.078571 1.745266
O 1.695736 -1.081891 -0.474389
O 1.519053 1.293496 -0.172092
H 1.724596 1.091046 -1.221015
9
Time step 2870
C -0.990280 -0.011521 -0.267428
F -1.255676 0.358325 -1.628290
F -1.528829 0.996976 0.473895
F -1.679152 -1.205372 -0.080958
S 0.950360 -0.185942 0.323770
O 0.822999 -0.078322 1.743981
O 1.695026 -1.082299 -0.474046
O 1.518100 1.294239 -0.171628
H 1.729735 1.089073 -1.230450
9
Time step 2871
C -0.990821 -0.010667 -0.266687
F -1.255812 0.358543 -1.629160
F -1.527333 0.997159 0.474535
F -1.679186 -1.206625 -0.081237
S 0.950784 -0.185977 0.324329
O 0.822318 -0.078077 1.742705
O 1.694322 -1.082724 -0.473708
O 1.517147 1.294976 -0.171184
H 1.734822 1.087201 -1.239552
9
Time step 2872
C -0.991375 -0.009811 -0.265955
F -1.255940 0.358755 -1.630017
F -1.525832 0.997335 0.475173
F -1.679212 -1.207867 -0.081517
S 0.951201 -0.186001 0.324884
O 0.821638 -0.077833 1.741436
O 1.693624 -1.083164 -0.473376
O 1.516193 1.295706 -0.170762
H 1.739849 1.085430 -1.248301
9
Time step 2873
C -0.991939 -0.008955 -0.265231
F -1.256063 0.358963 -1.630862
F -1.524328 0.997502 0.475807
F -1.679233 -1.209098 -0.081797
S 0.951610 -0.186016 0.325436
O 0.820959 -0.077592 1.740176
O 1.692933 -1.083620 -0.473051
O 1.515238 1.296429 -0.170362
H 1.744813 1.083762 -1.256681
9
Time step 2874
C -0.992512 -0.008098 -0.264517
F -1.256178 0.359167 -1.631694
F -1.522820 0.997660 0.476438
F -1.679247 -1.210318 -0.082078
S 0.952010 -0.186020 0.325986
O 0.820283 -0.077354 1.738926
O 1.692247 -1.084092 -0.472733
O 1.514284 1.297145 -0.169987
H 1.749709 1.082198 -1.264679
9
Time step 2875
C -0.993093 -0.007243 -0.263814
F -1.256287 0.359366 -1.632512
F -1.521309 0.997812 0.477066
F -1.679255 -1.211526 -0.082359
S 0.952403 -0.186013 0.326532
O 0.819607 -0.077119 1.737684
O 1.691567 -1.084581 -0.472423
O 1.513330 1.297853 -0.169636
H 1.754534 1.080740 -1.272282
9
Time step 2876
C -0.993685 -0.006389 -0.263122
F -1.256389 0.359561 -1.633316
F -1.519795 0.997956 0.477690
F -1.679256 -1.212723 -0.082641
S 0.952788 -0.185994 0.327076
O 0.818933 -0.076887 1.736453
O 1.690894 -1.085087 -0.472120
O 1.512377 1.298555 -0.169311
H 1.759284 1.079385 -1.279481
9
Time step 2877
C -0.994287 -0.005538 -0.262444
F -1.256484 0.359752 -1.634106
F -1.518278 0.998093 0.478310
F -1.679249 -1.213909 -0.082922
S 0.953165 -0.185963 0.327617
O 0.818260 -0.076661 1.735232
O 1.690226 -1.085610 -0.471827
O 1.511425 1.299249 -0.169012
H 1.763956 1.078135 -1.286264
9
Time step 2878
C -0.994899 -0.004689 -0.261779
F -1.256572 0.359937 -1.634882
F -1.516759 0.998224 0.478928
F -1.679234 -1.215082 -0.083203
S 0.953533 -0.185919 0.328154
O 0.817588 -0.076439 1.734023
O 1.689564 -1.086152 -0.471541
O 1.510474 1.299935 -0.168739
H 1.768547 1.076989 -1.292625
9
Time step 2879
C -0.995521 -0.003843 -0.261128
F -1.256654 0.360117 -1.635643
F -1.515237 0.998347 0.479544
F -1.679211 -1.216243 -0.083484
S 0.953893 -0.185862 0.328687
O 0.816917 -0.076222 1.732826
O 1.688909 -1.086713 -0.471264
O 1.509526 1.300614 -0.168494
H 1.773055 1.075948 -1.298556
9
Time step 2880
C -0.996150 -0.002999 -0.260492
F -1.256729 0.360293 -1.636389
F -1.513714 0.998464 0.480157
F -1.679181 -1.217392 -0.083765
S 0.954245 -0.185792 0.329216
O 0.816246 -0.076010 1.731643
O 1.688262 -1.087292 -0.470996
O 1.508580 1.301284 -0.168275
H 1.777474 1.075012 -1.304050
9
Time step 2881
C -0.996786 -0.002157 -0.259872
F -1.256799 0.360463 -1.637119
F -1.512190 0.998572 0.480767
F -1.679144 -1.218527 -0.084045
S 0.954588 -0.185709 0.329739
O 0.815577 -0.075802 1.730475
O 1.687621 -1.087890 -0.470736
O 1.507637 1.301946 -0.168084
H 1.781803 1.074183 -1.309100
9
Time step 2882
C -0.997431 -0.001317 -0.259267
F -1.256863 0.360629 -1.637834
F -1.510664 0.998672 0.481374
F -1.679099 -1.219650 -0.084325
S 0.954923 -0.185612 0.330257
O 0.814908 -0.075598 1.729322
O 1.686989 -1.088507 -0.470483
O 1.506696 1.302599 -0.167920
H 1.786037 1.073462 -1.313702
9
Time step 2883
C -0.998088 -0.000479 -0.258681
F -1.256921 0.360790 -1.638533
F -1.509135 0.998765 0.481978
F -1.679047 -1.220761 -0.084605
S 0.955248 -0.185504 0.330768
O 0.814241 -0.075396 1.728185
O 1.686364 -1.089142 -0.470238
O 1.505759 1.303242 -0.167784
H 1.790174 1.072850 -1.317851
9
Time step 2884
C -0.998758 0.000358 -0.258114
F -1.256971 0.360947 -1.639214
F -1.507603 0.998849 0.482578
F -1.678988 -1.221860 -0.084884
S 0.955566 -0.185382 0.331271
O 0.813576 -0.075198 1.727065
O 1.685747 -1.089794 -0.469999
O 1.504826 1.303877 -0.167675
H 1.794210 1.072348 -1.321543
9
Time step 2885
C -0.999442 0.001193 -0.257567
F -1.257015 0.361101 -1.639878
F -1.506068 0.998927 0.483176
F -1.678920 -1.222948 -0.085162
S 0.955874 -0.185249 0.331766
O 0.812912 -0.075003 1.725965
O 1.685138 -1.090465 -0.469767
O 1.503896 1.304501 -0.167594
H 1.798142 1.071958 -1.324777
9
Time step 2886
C -1.000140 0.002026 -0.257039
F -1.257052 0.361249 -1.640525
F -1.504531 0.998997 0.483772
F -1.678845 -1.224025 -0.085439
S 0.956174 -0.185103 0.332251
O 0.812249 -0.074810 1.724884
O 1.684537 -1.091152 -0.469542
O 1.502971 1.305116 -0.167539
H 1.801968 1.071679 -1.327551
9
Time step 2887
C -1.000848 0.002855 -0.256530
F -1.257082 0.361394 -1.641156
F -1.502991 0.999060 0.484365
F -1.678762 -1.225089 -0.085715
S 0.956464 -0.184945 0.332726
O 0.811588 -0.074620 1.723824
O 1.683943 -1.091856 -0.469322
O 1.502051 1.305721 -0.167512
H 1.805686 1.071512 -1.329863
9
Time step 2888
C -1.001562 0.003680 -0.256039
F -1.257105 0.361533 -1.641769
F -1.501451 0.999117 0.484955
F -1.678672 -1.226141 -0.085991
S 0.956746 -0.184775 0.333190
O 0.810929 -0.074433 1.722786
O 1.683356 -1.092577 -0.469108
O 1.501135 1.306317 -0.167511
H 1.809294 1.071457 -1.331713
9
Time step 2889
C -1.002279 0.004499 -0.255566
F -1.257123 0.361668 -1.642367
F -1.499911 0.999167 0.485544
F -1.678577 -1.227179 -0.086266
S 0.957019 -0.184594 0.333642
O 0.810271 -0.074248 1.721770
O 1.682777 -1.093316 -0.468900
O 1.500223 1.306903 -0.167537
H 1.812789 1.071516 -1.333099
9
Time step 2890
C -1.003000 0.005311 -0.255111
F -1.257136 0.361798 -1.642950
F -1.498372 0.999211 0.486130
F -1.678474 -1.228203 -0.086540
S 0.957282 -0.184401 0.334083
O 0.809615 -0.074066 1.720777
O 1.682204 -1.094071 -0.468698
O 1.499317 1.307480 -0.167590
H 1.816170 1.071689 -1.334020
9
Time step 2891
C -1.003725 0.006113 -0.254675
F -1.257142 0.361925 -1.643517
F -1.496832 0.999248 0.486716
F -1.678364 -1.229213 -0.086812
S 0.957537 -0.184196 0.334512
O 0.808961 -0.073886 1.719807
O 1.681638 -1.094842 -0.468501
O 1.498415 1.308047 -0.167671
H 1.819437 1.071979 -1.334476
9
Time step 2892
C -1.004458 0.006906 -0.254260
F -1.257142 0.362047 -1.644068
F -1.495291 0.999279 0.487300
F -1.678247 -1.230208 -0.087083
S 0.957783 -0.183981 0.334929
O 0.808308 -0.073709 1.718861
O 1.681078 -1.095629 -0.468309
O 1.497519 1.308606 -0.167779
H 1.822586 1.072387 -1.334466
9
Time step 2893
C -1.005201 0.007689 -0.253867
F -1.257134 0.362167 -1.644604
F -1.493749 0.999303 0.487883
F -1.678121 -1.231189 -0.087352
S 0.958020 -0.183755 0.335333
O 0.807656 -0.073535 1.717939
O 1.680523 -1.096432 -0.468121
O 1.496628 1.309156 -0.167916
H 1.825615 1.072914 -1.333988
9
Time step 2894
C -1.005954 0.008461 -0.253494
F -1.257120 0.362282 -1.645125
F -1.492206 0.999321 0.488465
F -1.677986 -1.232155 -0.087619
S 0.958248 -0.183518 0.335726
O 0.807004 -0.073364 1.717042
O 1.679975 -1.097249 -0.467938
O 1.495743 1.309697 -0.168081
H 1.828523 1.073561 -1.333042
9
Time step 2895
C -1.006716 0.009222 -0.253141
F -1.257100 0.362394 -1.645630
F -1.490661 0.999333 0.489045
F -1.677843 -1.233106 -0.087884
S 0.958468 -0.183271 0.336106
O 0.806353 -0.073195 1.716169
O 1.679431 -1.098080 -0.467760
O 1.494865 1.310230 -0.168275
H 1.831304 1.074329 -1.331628
9
Time step 2896
C -1.007484 0.009974 -0.252803
F -1.257073 0.362502 -1.646120
F -1.489115 0.999338 0.489623
F -1.677693 -1.234042 -0.088149
S 0.958681 -0.183015 0.336473
O 0.805703 -0.073028 1.715321
O 1.678892 -1.098926 -0.467586
O 1.493992 1.310753 -0.168496
H 1.833957 1.075215 -1.329746
9
Time step 2897
C -1.008255 0.010716 -0.252480
F -1.257041 0.362605 -1.646594
F -1.487570 0.999338 0.490199
F -1.677535 -1.234963 -0.088415
S 0.958886 -0.182748 0.336827
O 0.805052 -0.072862 1.714499
O 1.678358 -1.099786 -0.467418
O 1.493125 1.311267 -0.168746
H 1.836479 1.076219 -1.327397
9
Time step 2898
C -1.009027 0.011449 -0.252170
F -1.257004 0.362703 -1.647053
F -1.486026 0.999332 0.490771
F -1.677371 -1.235870 -0.088681
S 0.959084 -0.182472 0.337168
O 0.804402 -0.072698 1.713703
O 1.677829 -1.100660 -0.467256
O 1.492264 1.311771 -0.169022
H 1.838868 1.077337 -1.324584
9
Time step 2899
C -1.009800 0.012172 -0.251874
F -1.256962 0.362797 -1.647496
F -1.484484 0.999321 0.491341
F -1.677200 -1.236761 -0.088948
S 0.959275 -0.182185 0.337496
O 0.803752 -0.072535 1.712934
O 1.677306 -1.101550 -0.467100
O 1.491410 1.312265 -0.169325
H 1.841122 1.078565 -1.321308
9
Time step 2900
C -1.010577 0.012884 -0.251592
F -1.256915 0.362886 -1.647924
F -1.482942 0.999305 0.491909
F -1.677021 -1.237637 -0.089215
S 0.959457 -0.181888 0.337810
O 0.803102 -0.072373 1.712191
O 1.676789 -1.102454 -0.466950
O 1.490562 1.312750 -0.169656
H 1.843241 1.079900 -1.317572
9
Time step 2901
C -1.011357 0.013584 -0.251327
F -1.256861 0.362972 -1.648336
F -1.481402 0.999283 0.492475
F -1.676836 -1.238499 -0.089483
S 0.959631 -0.181580 0.338110
O 0.802453 -0.072214 1.711475
O 1.676278 -1.103373 -0.466807
O 1.489721 1.313224 -0.170013
H 1.845223 1.081340 -1.313379
9
Time step 2902
C -1.012143 0.014272 -0.251080
F -1.256802 0.363054 -1.648731
F -1.479863 0.999257 0.493040
F -1.676642 -1.239345 -0.089749
S 0.959797 -0.181260 0.338397
O 0.801804 -0.072057 1.710787
O 1.675775 -1.104307 -0.466668
O 1.488887 1.313688 -0.170398
H 1.847067 1.082882 -1.308732
9
Time step 2903
C -1.012933 0.014946 -0.250853
F -1.256737 0.363132 -1.649111
F -1.478325 0.999225 0.493604
F -1.676441 -1.240176 -0.090015
S 0.959953 -0.180930 0.338668
O 0.801155 -0.071902 1.710129
O 1.675280 -1.105255 -0.466535
O 1.488061 1.314143 -0.170810
H 1.848772 1.084525 -1.303633
9
Time step 2904
C -1.013726 0.015606 -0.250647
F -1.256667 0.363206 -1.649472
F -1.476788 0.999189 0.494166
F -1.676233 -1.240990 -0.090280
S 0.960100 -0.180588 0.338925
O 0.800507 -0.071751 1.709500
O 1.674792 -1.106218 -0.466407
O 1.487243 1.314588 -0.171250
H 1.850335 1.086271 -1.298087
9
Time step 2905
C -1.014518 0.016253 -0.250462
F -1.256591 0.363276 -1.649816
F -1.475252 0.999149 0.494727
F -1.676019 -1.241789 -0.090545
S 0.960238 -0.180236 0.339165
O 0.799858 -0.071602 1.708903
O 1.674312 -1.107194 -0.466284
O 1.486432 1.315025 -0.171716
H 1.851755 1.088120 -1.292096
9
Time step 2906
C -1.015308 0.016886 -0.250299
F -1.256510 0.363341 -1.650142
F -1.473718 0.999105 0.495286
F -1.675799 -1.242572 -0.090809
S 0.960368 -0.179875 0.339388
O 0.799209 -0.071455 1.708338
O 1.673839 -1.108184 -0.466165
O 1.485629 1.315453 -0.172209
H 1.853029 1.090074 -1.285663
9
Time step 2907
C -1.016096 0.017505 -0.250158
F -1.256424 0.363402 -1.650448
F -1.472185 0.999057 0.495844
F -1.675573 -1.243341 -0.091072
S 0.960488 -0.179504 0.339595
O 0.798560 -0.071311 1.707806
O 1.673372 -1.109187 -0.466050
O 1.484833 1.315873 -0.172728
H 1.854156 1.092132 -1.278793
9
Time step 2908
C -1.016884 0.018111 -0.250040
F -1.256332 0.363458 -1.650736
F -1.470654 0.999006 0.496401
F -1.675343 -1.244095 -0.091335
S 0.960600 -0.179123 0.339784
O 0.797911 -0.071169 1.707307
O 1.672912 -1.110203 -0.465939
O 1.484044 1.316285 -0.173273
H 1.855136 1.094296 -1.271492
9
Time step 2909
C -1.017670 0.018704 -0.249947
F -1.256234 0.363511 -1.651005
F -1.469123 0.998951 0.496956
F -1.675106 -1.244835 -0.091597
S 0.960704 -0.178734 0.339956
O 0.797263 -0.071028 1.706841
O 1.672458 -1.111232 -0.465832
O 1.483262 1.316689 -0.173843
H 1.855969 1.096562 -1.263764
9
Time step 2910
C -1.018456 0.019283 -0.249880
F -1.256130 0.363560 -1.651256
F -1.467594 0.998893 0.497510
F -1.674864 -1.245561 -0.091857
S 0.960800 -0.178336 0.340111
O 0.796615 -0.070890 1.706408
O 1.672009 -1.112274 -0.465729
O 1.482486 1.317085 -0.174439
H 1.856658 1.098929 -1.255618
9
Time step 2911
C -1.019240 0.019849 -0.249838
F -1.256021 0.363606 -1.651489
F -1.466066 0.998832 0.498063
F -1.674615 -1.246273 -0.092116
S 0.960887 -0.177928 0.340248
O 0.795967 -0.070754 1.706009
O 1.671564 -1.113327 -0.465629
O 1.481717 1.317472 -0.175059
H 1.857206 1.101391 -1.247063
9
Time step 2912
C -1.020020 0.020401 -0.249821
F -1.255907 0.363648 -1.651703
F -1.464540 0.998767 0.498616
F -1.674360 -1.246969 -0.092373
S 0.960966 -0.177512 0.340369
O 0.795319 -0.070620 1.705643
O 1.671125 -1.114392 -0.465532
O 1.480955 1.317851 -0.175703
H 1.857616 1.103947 -1.238107
9
Time step 2913
C -1.020795 0.020939 -0.249829
F -1.255788 0.363687 -1.651901
F -1.463018 0.998697 0.499169
F -1.674098 -1.247651 -0.092629
S 0.961037 -0.177087 0.340471
O 0.794672 -0.070488 1.705311
O 1.670690 -1.115469 -0.465437
O 1.480200 1.318222 -0.176372
H 1.857893 1.106594 -1.228763
9
Time step 2914
C -1.021563 0.021462 -0.249861
F -1.255664 0.363722 -1.652081
F -1.461499 0.998623 0.499722
F -1.673829 -1.248315 -0.092883
S 0.961098 -0.176654 0.340556
O 0.794024 -0.070359 1.705012
O 1.670260 -1.116557 -0.465345
O 1.479452 1.318585 -0.177064
H 1.858043 1.109329 -1.219042
9
Time step 2915
C -1.022327 0.021970 -0.249915
F -1.255537 0.363754 -1.652244
F -1.459985 0.998545 0.500275
F -1.673553 -1.248963 -0.093137
S 0.961152 -0.176212 0.340623
O 0.793377 -0.070231 1.704746
O 1.669835 -1.117655 -0.465254
O 1.478711 1.318939 -0.177778
H 1.858068 1.112152 -1.208957
9
Time step 2916
C -1.023087 0.022462 -0.249992
F -1.255405 0.363781 -1.652390
F -1.458474 0.998464 0.500827
F -1.673269 -1.249595 -0.093390
S 0.961196 -0.175762 0.340671
O 0.792730 -0.070106 1.704514
O 1.669415 -1.118765 -0.465166
O 1.477976 1.319285 -0.178513
H 1.857975 1.115062 -1.198523
9
Time step 2917
C -1.023846 0.022938 -0.250091
F -1.255268 0.363806 -1.652518
F -1.456966 0.998380 0.501379
F -1.672978 -1.250210 -0.093642
S 0.961232 -0.175305 0.340700
O 0.792084 -0.069982 1.704316
O 1.669000 -1.119885 -0.465080
O 1.477249 1.319623 -0.179269
H 1.857767 1.118059 -1.187756
9
Time step 2918
C -1.024605 0.023396 -0.250214
F -1.255126 0.363827 -1.652628
F -1.455461 0.998294 0.501930
F -1.672679 -1.250809 -0.093893
S 0.961260 -0.174840 0.340711
O 0.791440 -0.069860 1.704151
O 1.668590 -1.121015 -0.464995
O 1.476527 1.319953 -0.180042
H 1.857450 1.121140 -1.176674
9
Time step 2919
C -1.025366 0.023836 -0.250359
F -1.254979 0.363845 -1.652722
F -1.453960 0.998205 0.502480
F -1.672372 -1.251392 -0.094143
S 0.961278 -0.174368 0.340704
O 0.790798 -0.069738 1.704020
O 1.668185 -1.122155 -0.464911
O 1.475811 1.320275 -0.180833
H 1.857030 1.124302 -1.165295
9
Time step 2920
C -1.026125 0.024258 -0.250526
F -1.254827 0.363860 -1.652799
F -1.452463 0.998113 0.503030
F -1.672058 -1.251958 -0.094392
S 0.961288 -0.173889 0.340677
O 0.790159 -0.069617 1.703923
O 1.667784 -1.123304 -0.464829
O 1.475102 1.320589 -0.181638
H 1.856513 1.127538 -1.153641
9
Time step 2921
C -1.026882 0.024662 -0.250717
F -1.254670 0.363872 -1.652859
F -1.450970 0.998017 0.503579
F -1.671737 -1.252507 -0.094640
S 0.961289 -0.173403 0.340631
O 0.789522 -0.069497 1.703859
O 1.667388 -1.124463 -0.464747
O 1.474397 1.320896 -0.182457
H 1.855908 1.130843 -1.141736
9
Time step 2922
C -1.027634 0.025049 -0.250932
F -1.254510 0.363880 -1.652903
F -1.449482 0.997918 0.504128
F -1.671409 -1.253038 -0.094887
S 0.961281 -0.172910 0.340565
O 0.788889 -0.069378 1.703830
O 1.666996 -1.125630 -0.464667
O 1.473698 1.321195 -0.183287
H 1.855223 1.134208 -1.129606
9
Time step 2923
C -1.028381 0.025417 -0.251169
F -1.254345 0.363884 -1.652930
F -1.447999 0.997815 0.504677
F -1.671074 -1.253552 -0.095133
S 0.961265 -0.172409 0.340480
O 0.788258 -0.069258 1.703835
O 1.666607 -1.126806 -0.464588
O 1.473003 1.321488 -0.184127
H 1.854468 1.137626 -1.117280
9
Time step 2924
C -1.029122 0.025766 -0.251430
F -1.254177 0.363885 -1.652941
F -1.446519 0.997709 0.505226
F -1.670734 -1.254049 -0.095378
S 0.961240 -0.171901 0.340375
O 0.787629 -0.069140 1.703875
O 1.666222 -1.127991 -0.464509
O 1.472312 1.321773 -0.184974
H 1.853658 1.141089 -1.104791
9
Time step 2925
C -1.029859 0.026096 -0.251714
F -1.254004 0.363881 -1.652934
F -1.445043 0.997600 0.505774
F -1.670386 -1.254528 -0.095623
S 0.961207 -0.171385 0.340250
O 0.787002 -0.069023 1.703949
O 1.665840 -1.129183 -0.464433
O 1.471623 1.322052 -0.185827
H 1.852804 1.144591 -1.092176
9
Time step 2926
C -1.030590 0.026406 -0.252020
F -1.253827 0.363874 -1.652910
F -1.443571 0.997489 0.506322
F -1.670033 -1.254991 -0.095867
S 0.961167 -0.170862 0.340106
O 0.786374 -0.068907 1.704058
O 1.665461 -1.130383 -0.464357
O 1.470935 1.322326 -0.186682
H 1.851924 1.148125 -1.079477
9
Time step 2927
C -1.031317 0.026697 -0.252349
F -1.253646 0.363862 -1.652869
F -1.442102 0.997376 0.506869
F -1.669673 -1.255437 -0.096111
S 0.961119 -0.170332 0.339943
O 0.785747 -0.068793 1.704201
O 1.665085 -1.131590 -0.464282
O 1.470247 1.322594 -0.187539
H 1.851034 1.151686 -1.066742
9
Time step 2928
C -1.032036 0.026968 -0.252699
F -1.253460 0.363847 -1.652810
F -1.440636 0.997261 0.507415
F -1.669307 -1.255866 -0.096354
S 0.961064 -0.169797 0.339760
O 0.785119 -0.068681 1.704378
O 1.664712 -1.132803 -0.464208
O 1.469558 1.322859 -0.188393
H 1.850157 1.155266 -1.054023
9
Time step 2929
C -1.032748 0.027221 -0.253070
F -1.253270 0.363828 -1.652733
F -1.439176 0.997145 0.507960
F -1.668936 -1.256279 -0.096596
S 0.961002 -0.169256 0.339558
O 0.784491 -0.068569 1.704588
O 1.664341 -1.134022 -0.464135
O 1.468866 1.323120 -0.189242
H 1.849315 1.158859 -1.041378
9
Time step 2930
C -1.033449 0.027454 -0.253463
F -1.253076 0.363806 -1.652639
F -1.437720 0.997027 0.508506
F -1.668559 -1.256675 -0.096837
S 0.960932 -0.168710 0.339336
O 0.783863 -0.068459 1.704830
O 1.663974 -1.135246 -0.464061
O 1.468169 1.323379 -0.190082
H 1.848534 1.162453 -1.028869
9
Time step 2931
C -1.034140 0.027669 -0.253879
F -1.252877 0.363779 -1.652528
F -1.436270 0.996908 0.509052
F -1.668178 -1.257055 -0.097078
S 0.960855 -0.168160 0.339096
O 0.783234 -0.068349 1.705104
O 1.663610 -1.136476 -0.463988
O 1.467466 1.323638 -0.190909
H 1.847843 1.166038 -1.016563
9
Time step 2932
C -1.034819 0.027865 -0.254317
F -1.252674 0.363750 -1.652399
F -1.434826 0.996786 0.509599
F -1.667791 -1.257418 -0.097318
S 0.960769 -0.167607 0.338838
O 0.782606 -0.068240 1.705410
O 1.663250 -1.137711 -0.463913
O 1.466755 1.323896 -0.191719
H 1.847276 1.169601 -1.004529
9
Time step 2933
C -1.035489 0.028041 -0.254778
F -1.252467 0.363718 -1.652253
F -1.433387 0.996663 0.510147
F -1.667399 -1.257764 -0.097557
S 0.960676 -0.167049 0.338560
O 0.781978 -0.068131 1.705746
O 1.662893 -1.138952 -0.463838
O 1.466034 1.324154 -0.192507
H 1.846866 1.173127 -0.992836
9
Time step 2934
C -1.036148 0.028197 -0.255262
F -1.252255 0.363683 -1.652089
F -1.431953 0.996539 0.510695
F -1.667001 -1.258094 -0.097795
S 0.960574 -0.166488 0.338265
O 0.781350 -0.068022 1.706113
O 1.662540 -1.140199 -0.463762
O 1.465300 1.324414 -0.193269
H 1.846652 1.176600 -0.981557
9
Time step 2935
C -1.036797 0.028332 -0.255770
F -1.252040 0.363646 -1.651906
F -1.430524 0.996412 0.511243
F -1.666599 -1.258407 -0.098034
S 0.960463 -0.165922 0.337952
O 0.780722 -0.067914 1.706510
O 1.662192 -1.141450 -0.463686
O 1.464552 1.324677 -0.194002
H 1.846673 1.180005 -0.970764
9
Time step 2936
C -1.037435 0.028447 -0.256299
F -1.251821 0.363606 -1.651704
F -1.429100 0.996284 0.511790
F -1.666191 -1.258703 -0.098271
S 0.960343 -0.165351 0.337621
O 0.780096 -0.067808 1.706937
O 1.661848 -1.142706 -0.463608
O 1.463788 1.324942 -0.194700
H 1.846970 1.183326 -0.960529
9
Time step 2937
C -1.038063 0.028541 -0.256852
F -1.251598 0.363563 -1.651484
F -1.427682 0.996154 0.512337
F -1.665778 -1.258983 -0.098509
S 0.960213 -0.164776 0.337273
O 0.779471 -0.067703 1.707393
O 1.661508 -1.143967 -0.463530
O 1.463004 1.325212 -0.195359
H 1.847583 1.186549 -0.950922
9
Time step 2938
C -1.038681 0.028617 -0.257427
F -1.251371 0.363518 -1.651245
F -1.426270 0.996023 0.512884
F -1.665360 -1.259246 -0.098746
S 0.960075 -0.164197 0.336907
O 0.778847 -0.067600 1.707879
O 1.661172 -1.145232 -0.463450
O 1.462198 1.325487 -0.195974
H 1.848554 1.189661 -0.942014
9
Time step 2939
C -1.039289 0.028673 -0.258026
F -1.251140 0.363468 -1.650989
F -1.424863 0.995890 0.513431
F -1.664936 -1.259492 -0.098982
S 0.959927 -0.163613 0.336525
O 0.778226 -0.067500 1.708393
O 1.660840 -1.146501 -0.463368
O 1.461369 1.325767 -0.196542
H 1.849922 1.192652 -0.933868
9
Time step 2940
C -1.039889 0.028709 -0.258649
F -1.250906 0.363415 -1.650716
F -1.423462 0.995756 0.513978
F -1.664505 -1.259721 -0.099218
S 0.959770 -0.163026 0.336125
O 0.777607 -0.067401 1.708937
O 1.660511 -1.147773 -0.463286
O 1.460513 1.326054 -0.197057
H 1.851726 1.195512 -0.926546
9
Time step 2941
C -1.040482 0.028724 -0.259298
F -1.250668 0.363359 -1.650427
F -1.422066 0.995620 0.514527
F -1.664068 -1.259933 -0.099452
S 0.959605 -0.162435 0.335707
O 0.776991 -0.067304 1.709509
O 1.660184 -1.149047 -0.463201
O 1.459629 1.326347 -0.197517
H 1.854001 1.198235 -0.920102
9
Time step 2942
C -1.041067 0.028718 -0.259972
F -1.250426 0.363299 -1.650122
F -1.420675 0.995484 0.515077
F -1.663625 -1.260128 -0.099684
S 0.959430 -0.161841 0.335273
O 0.776377 -0.067209 1.710109
O 1.659859 -1.150324 -0.463114
O 1.458715 1.326648 -0.197917
H 1.856778 1.200815 -0.914580
9
Time step 2943
C -1.041645 0.028688 -0.260671
F -1.250180 0.363238 -1.649801
F -1.419290 0.995347 0.515627
F -1.663175 -1.260305 -0.099915
S 0.959247 -0.161244 0.334822
O 0.775766 -0.067114 1.710737
O 1.659535 -1.151603 -0.463025
O 1.457768 1.326955 -0.198257
H 1.860085 1.203248 -0.910014
9
Time step 2944
C -1.042212 0.028635 -0.261393
F -1.249931 0.363174 -1.649463
F -1.417910 0.995209 0.516178
F -1.662719 -1.260466 -0.100144
S 0.959056 -0.160644 0.334354
O 0.775156 -0.067021 1.711392
O 1.659211 -1.152883 -0.462934
O 1.456789 1.327269 -0.198534
H 1.863943 1.205533 -0.906426
9
Time step 2945
C -1.042767 0.028559 -0.262137
F -1.249679 0.363108 -1.649108
F -1.416536 0.995068 0.516728
F -1.662257 -1.260609 -0.100373
S 0.958858 -0.160041 0.333868
O 0.774548 -0.066928 1.712073
O 1.658889 -1.154164 -0.462840
O 1.455774 1.327589 -0.198749
H 1.868367 1.207667 -0.903824
9
Time step 2946
C -1.043308 0.028461 -0.262902
F -1.249425 0.363040 -1.648737
F -1.415169 0.994926 0.517278
F -1.661790 -1.260735 -0.100600
S 0.958652 -0.159435 0.333367
O 0.773942 -0.066837 1.712780
O 1.658567 -1.155446 -0.462743
O 1.454726 1.327915 -0.198901
H 1.873367 1.209651 -0.902199
9
Time step 2947
C -1.043837 0.028344 -0.263689
F -1.249168 0.362970 -1.648350
F -1.413809 0.994781 0.517826
F -1.661317 -1.260843 -0.100827
S 0.958438 -0.158827 0.332848
O 0.773337 -0.066747 1.713512
O 1.658246 -1.156728 -0.462642
O 1.453642 1.328248 -0.198992
H 1.878941 1.211488 -0.901533
9
Time step 2948
C -1.044354 0.028208 -0.264496
F -1.248909 0.362897 -1.647946
F -1.412456 0.994634 0.518374
F -1.660839 -1.260935 -0.101052
S 0.958217 -0.158216 0.332313
O 0.772735 -0.066659 1.714269
O 1.657926 -1.158011 -0.462538
O 1.452524 1.328587 -0.199025
H 1.885081 1.213182 -0.901792
9
Time step 2949
C -1.044861 0.028054 -0.265323
F -1.248647 0.362820 -1.647524
F -1.411108 0.994484 0.518921
F -1.660355 -1.261010 -0.101277
S 0.957987 -0.157602 0.331762
O 0.772135 -0.066572 1.715050
O 1.657608 -1.159295 -0.462431
O 1.451374 1.328932 -0.199001
H 1.891771 1.214741 -0.902933
9
Time step 2950
C -1.045359 0.027884 -0.266171
F -1.248381 0.362741 -1.647085
F -1.409767 0.994332 0.519467
F -1.659864 -1.261069 -0.101502
S 0.957749 -0.156986 0.331194
O 0.771538 -0.066488 1.715854
O 1.657291 -1.160579 -0.462319
O 1.450191 1.329283 -0.198925
H 1.898986 1.216175 -0.904902
9
Time step 2951
C -1.045846 0.027695 -0.267039
F -1.248113 0.362658 -1.646629
F -1.408431 0.994179 0.520011
F -1.659368 -1.261111 -0.101725
S 0.957501 -0.156368 0.330609
O 0.770943 -0.066405 1.716682
O 1.656976 -1.161864 -0.462204
O 1.448980 1.329639 -0.198799
H 1.906696 1.217496 -0.907639
9
Time step 2952
C -1.046320 0.027488 -0.267928
F -1.247841 0.362572 -1.646154
F -1.407103 0.994024 0.520554
F -1.658866 -1.261137 -0.101948
S 0.957245 -0.155748 0.330009
O 0.770351 -0.066325 1.717532
O 1.656663 -1.163149 -0.462085
O 1.447741 1.330000 -0.198628
H 1.914863 1.218715 -0.911081
9
Time step 2953
C -1.046779 0.027261 -0.268835
F -1.247567 0.362483 -1.645662
F -1.405781 0.993869 0.521097
F -1.658359 -1.261146 -0.102170
S 0.956981 -0.155128 0.329392
O 0.769761 -0.066246 1.718403
O 1.656352 -1.164433 -0.461961
O 1.446478 1.330365 -0.198416
H 1.923448 1.219846 -0.915161
9
Time step 2954
C -1.047220 0.027014 -0.269762
F -1.247290 0.362392 -1.645153
F -1.404468 0.993714 0.521639
F -1.657848 -1.261138 -0.102393
S 0.956707 -0.154508 0.328759
O 0.769173 -0.066167 1.719294
O 1.656042 -1.165716 -0.461833
O 1.445193 1.330733 -0.198168
H 1.932409 1.220901 -0.919809
9
Time step 2955
C -1.047643 0.026746 -0.270709
F -1.247011 0.362297 -1.644627
F -1.403164 0.993557 0.522181
F -1.657332 -1.261113 -0.102615
S 0.956424 -0.153887 0.328112
O 0.768589 -0.066090 1.720205
O 1.655733 -1.166998 -0.461700
O 1.443889 1.331105 -0.197888
H 1.941704 1.221888 -0.924958
9
Time step 2956
C -1.048048 0.026458 -0.271675
F -1.246730 0.362199 -1.644087
F -1.401867 0.993399 0.522724
F -1.656811 -1.261070 -0.102836
S 0.956133 -0.153267 0.327451
O 0.768007 -0.066012 1.721134
O 1.655425 -1.168279 -0.461563
O 1.442567 1.331478 -0.197579
H 1.951290 1.222818 -0.930540
9
Time step 2957
C -1.048439 0.026150 -0.272660
F -1.246446 0.362098 -1.643531
F -1.400577 0.993239 0.523269
F -1.656284 -1.261010 -0.103058
S 0.955834 -0.152647 0.326776
O 0.767429 -0.065935 1.722080
O 1.655118 -1.169558 -0.461422
O 1.441230 1.331854 -0.197247
H 1.961127 1.223696 -0.936489
9
Time step 2958
C -1.048817 0.025821 -0.273665
F -1.246160 0.361995 -1.642960
F -1.399294 0.993077 0.523813
F -1.655753 -1.260931 -0.103280
S 0.955525 -0.152026 0.326089
O 0.766855 -0.065858 1.723041
O 1.654812 -1.170836 -0.461276
O 1.439881 1.332231 -0.196896
H 1.971175 1.224529 -0.942741
9
Time step 2959
C -1.049185 0.025472 -0.274687
F -1.245871 0.361889 -1.642373
F -1.398015 0.992913 0.524357
F -1.655216 -1.260835 -0.103502
S 0.955209 -0.151405 0.325391
O 0.766286 -0.065782 1.724018
O 1.654506 -1.172113 -0.461126
O 1.438522 1.332609 -0.196528
H 1.981394 1.225323 -0.949234
9
Time step 2960
C -1.049541 0.025103 -0.275726
F -1.245580 0.361780 -1.641772
F -1.396742 0.992747 0.524899
F -1.654675 -1.260722 -0.103725
S 0.954884 -0.150782 0.324681
O 0.765720 -0.065708 1.725008
O 1.654202 -1.173389 -0.460973
O 1.437156 1.332988 -0.196148
H 1.991744 1.226085 -0.955910
9
Time step 2961
C -1.049884 0.024714 -0.276782
F -1.245286 0.361669 -1.641154
F -1.395474 0.992579 0.525440
F -1.654129 -1.260593 -0.103947
S 0.954550 -0.150159 0.323961
O 0.765159 -0.065635 1.726012
O 1.653897 -1.174665 -0.460817
O 1.435784 1.333368 -0.195760
H 2.002185 1.226820 -0.962712
9
Time step 2962
C -1.050213 0.024306 -0.277853
F -1.244990 0.361555 -1.640521
F -1.394213 0.992409 0.525978
F -1.653579 -1.260448 -0.104170
S 0.954209 -0.149534 0.323231
O 0.764601 -0.065564 1.727030
O 1.653594 -1.175940 -0.460658
O 1.434410 1.333748 -0.195366
H 2.012680 1.227536 -0.969589
9
Time step 2963
C -1.050525 0.023880 -0.278940
F -1.244691 0.361438 -1.639873
F -1.392959 0.992237 0.526515
F -1.653026 -1.260286 -0.104392
S 0.953860 -0.148909 0.322489
O 0.764048 -0.065495 1.728061
O 1.653290 -1.177213 -0.460495
O 1.433035 1.334129 -0.194969
H 2.023190 1.228240 -0.976491
9
Time step 2964
C -1.050821 0.023436 -0.280043
F -1.244389 0.361318 -1.639211
F -1.391713 0.992064 0.527051
F -1.652469 -1.260108 -0.104614
S 0.953504 -0.148284 0.321736
O 0.763497 -0.065428 1.729104
O 1.652985 -1.178484 -0.460328
O 1.431663 1.334509 -0.194572
H 2.033681 1.228937 -0.983377
9
Time step 2965
C -1.051101 0.022975 -0.281163
F -1.244085 0.361195 -1.638534
F -1.390475 0.991889 0.527585
F -1.651907 -1.259914 -0.104834
S 0.953141 -0.147660 0.320971
O 0.762950 -0.065362 1.730159
O 1.652679 -1.179752 -0.460156
O 1.430294 1.334889 -0.194177
H 2.044120 1.229633 -0.990207
9
Time step 2966
C -1.051366 0.022496 -0.282301
F -1.243778 0.361070 -1.637843
F -1.389244 0.991711 0.528119
F -1.651341 -1.259703 -0.105053
S 0.952772 -0.147037 0.320195
O 0.762407 -0.065297 1.731226
O 1.652372 -1.181017 -0.459980
O 1.428931 1.335269 -0.193787
H 2.054480 1.230330 -0.996946
9
Time step 2967
C -1.051617 0.022000 -0.283455
F -1.243468 0.360943 -1.637138
F -1.388021 0.991530 0.528653
F -1.650770 -1.259474 -0.105270
S 0.952395 -0.146416 0.319408
O 0.761866 -0.065232 1.732304
O 1.652063 -1.182278 -0.459799
O 1.427576 1.335647 -0.193402
H 2.064734 1.231031 -1.003562
9
Time step 2968
C -1.051854 0.021487 -0.284625
F -1.243156 0.360813 -1.636419
F -1.386803 0.991345 0.529184
F -1.650193 -1.259229 -0.105485
S 0.952011 -0.145796 0.318610
O 0.761328 -0.065168 1.733392
O 1.651753 -1.183535 -0.459613
O 1.426230 1.336024 -0.193025
H 2.074861 1.231740 -1.010028
9
Time step 2969
C -1.052076 0.020956 -0.285810
F -1.242842 0.360680 -1.635686
F -1.385593 0.991156 0.529713
F -1.649612 -1.258966 -0.105700
S 0.951620 -0.145179 0.317802
O 0.760793 -0.065104 1.734490
O 1.651442 -1.184786 -0.459422
O 1.424895 1.336400 -0.192659
H 2.084840 1.232457 -1.016316
9
Time step 2970
C -1.052282 0.020408 -0.287007
F -1.242527 0.360546 -1.634938
F -1.384389 0.990964 0.530240
F -1.649027 -1.258686 -0.105915
S 0.951221 -0.144564 0.316984
O 0.760262 -0.065041 1.735596
O 1.651130 -1.186033 -0.459225
O 1.423572 1.336774 -0.192303
H 2.094651 1.233185 -1.022403
9
Time step 2971
C -1.052470 0.019844 -0.288215
F -1.242210 0.360408 -1.634177
F -1.383193 0.990769 0.530765
F -1.648438 -1.258390 -0.106129
S 0.950814 -0.143951 0.316155
O 0.759733 -0.064978 1.736710
O 1.650817 -1.187273 -0.459024
O 1.422264 1.337148 -0.191961
H 2.104277 1.233924 -1.028266
9
Time step 2972
C -1.052640 0.019264 -0.289434
F -1.241892 0.360268 -1.633401
F -1.382003 0.990571 0.531287
F -1.647846 -1.258078 -0.106343
S 0.950400 -0.143341 0.315317
O 0.759209 -0.064917 1.737832
O 1.650504 -1.188509 -0.458816
O 1.420970 1.337520 -0.191633
H 2.113700 1.234677 -1.033884
9
Time step 2973
C -1.052793 0.018667 -0.290663
F -1.241572 0.360125 -1.632612
F -1.380821 0.990372 0.531808
F -1.647250 -1.257751 -0.106557
S 0.949976 -0.142733 0.314469
O 0.758688 -0.064858 1.738960
O 1.650191 -1.189738 -0.458603
O 1.419692 1.337892 -0.191321
H 2.122904 1.235444 -1.039241
9
Time step 2974
C -1.052930 0.018054 -0.291902
F -1.241250 0.359981 -1.631810
F -1.379646 0.990171 0.532325
F -1.646650 -1.257409 -0.106771
S 0.949545 -0.142128 0.313611
O 0.758171 -0.064800 1.740095
O 1.649878 -1.190962 -0.458383
O 1.418432 1.338263 -0.191026
H 2.131874 1.236224 -1.044321
9
Time step 2975
C -1.053051 0.017423 -0.293151
F -1.240927 0.359836 -1.630994
F -1.378478 0.989969 0.532840
F -1.646045 -1.257053 -0.106985
S 0.949106 -0.141525 0.312745
O 0.757658 -0.064746 1.741236
O 1.649563 -1.192180 -0.458156
O 1.417188 1.338633 -0.190749
H 2.140595 1.237017 -1.049114
9
Time step 2976
C -1.053157 0.016775 -0.294411
F -1.240601 0.359689 -1.630165
F -1.377317 0.989765 0.533352
F -1.645436 -1.256682 -0.107198
S 0.948659 -0.140924 0.311871
O 0.757150 -0.064694 1.742382
O 1.649247 -1.193391 -0.457923
O 1.415963 1.339003 -0.190493
H 2.149056 1.237822 -1.053611
9
Time step 2977
C -1.053245 0.016109 -0.295682
F -1.240274 0.359543 -1.629322
F -1.376163 0.989560 0.533861
F -1.644822 -1.256296 -0.107412
S 0.948205 -0.140325 0.310990
O 0.756645 -0.064644 1.743532
O 1.648929 -1.194596 -0.457683
O 1.414756 1.339370 -0.190256
H 2.157248 1.238639 -1.057802
9
Time step 2978
C -1.053314 0.015426 -0.296963
F -1.239946 0.359395 -1.628465
F -1.375018 0.989351 0.534367
F -1.644204 -1.255893 -0.107625
S 0.947743 -0.139730 0.310103
O 0.756145 -0.064598 1.744684
O 1.648609 -1.195793 -0.457437
O 1.413569 1.339737 -0.190041
H 2.165160 1.239470 -1.061681
9
Time step 2979
C -1.053363 0.014725 -0.298254
F -1.239618 0.359245 -1.627594
F -1.373880 0.989139 0.534870
F -1.643582 -1.255475 -0.107838
S 0.947272 -0.139136 0.309211
O 0.755650 -0.064555 1.745838
O 1.648288 -1.196983 -0.457184
O 1.412402 1.340101 -0.189848
H 2.172784 1.240315 -1.065238
9
Time step 2980
C -1.053391 0.014010 -0.299556
F -1.239289 0.359093 -1.626711
F -1.372751 0.988924 0.535370
F -1.642956 -1.255040 -0.108051
S 0.946794 -0.138545 0.308314
O 0.755158 -0.064514 1.746991
O 1.647965 -1.198167 -0.456926
O 1.411256 1.340464 -0.189676
H 2.180115 1.241178 -1.068467
9
Time step 2981
C -1.053400 0.013280 -0.300868
F -1.238959 0.358939 -1.625816
F -1.371629 0.988705 0.535867
F -1.642325 -1.254588 -0.108264
S 0.946308 -0.137956 0.307411
O 0.754671 -0.064476 1.748145
O 1.647640 -1.199344 -0.456662
O 1.410130 1.340825 -0.189526
H 2.187144 1.242061 -1.071358
9
Time step 2982
C -1.053392 0.012538 -0.302189
F -1.238629 0.358782 -1.624908
F -1.370514 0.988482 0.536362
F -1.641691 -1.254121 -0.108476
S 0.945814 -0.137369 0.306504
O 0.754190 -0.064440 1.749298
O 1.647315 -1.200514 -0.456392
O 1.409024 1.341184 -0.189396
H 2.193865 1.242965 -1.073904
9
Time step 2983
C -1.053370 0.011783 -0.303518
F -1.238297 0.358622 -1.623989
F -1.369405 0.988256 0.536853
F -1.641053 -1.253639 -0.108689
S 0.945313 -0.136785 0.305591
O 0.753713 -0.064407 1.750450
O 1.646989 -1.201680 -0.456116
O 1.407940 1.341541 -0.189287
H 2.200274 1.243890 -1.076098
9
Time step 2984
C -1.053335 0.011017 -0.304853
F -1.237964 0.358460 -1.623059
F -1.368302 0.988027 0.537341
F -1.640410 -1.253142 -0.108900
S 0.944804 -0.136203 0.304672
O 0.753241 -0.064375 1.751600
O 1.646663 -1.202841 -0.455834
O 1.406876 1.341896 -0.189200
H 2.206365 1.244836 -1.077937
9
Time step 2985
C -1.053285 0.010237 -0.306195
F -1.237630 0.358296 -1.622117
F -1.367206 0.987794 0.537825
F -1.639764 -1.252630 -0.109112
S 0.944287 -0.135623 0.303749
O 0.752775 -0.064346 1.752749
O 1.646336 -1.203996 -0.455547
O 1.405834 1.342249 -0.189132
H 2.212134 1.245802 -1.079417
9
Time step 2986
C -1.053220 0.009445 -0.307541
F -1.237295 0.358130 -1.621164
F -1.366116 0.987557 0.538305
F -1.639114 -1.252102 -0.109324
S 0.943764 -0.135045 0.302822
O 0.752315 -0.064317 1.753895
O 1.646007 -1.205146 -0.455255
O 1.404813 1.342602 -0.189086
H 2.217578 1.246785 -1.080539
9
Time step 2987
C -1.053138 0.008642 -0.308890
F -1.236959 0.357961 -1.620201
F -1.365034 0.987316 0.538781
F -1.638462 -1.251560 -0.109536
S 0.943235 -0.134471 0.301890
O 0.751859 -0.064290 1.755038
O 1.645678 -1.206289 -0.454957
O 1.403814 1.342954 -0.189061
H 2.222694 1.247784 -1.081301
9
Time step 2988
C -1.053037 0.007827 -0.310243
F -1.236622 0.357790 -1.619228
F -1.363960 0.987070 0.539252
F -1.637808 -1.251003 -0.109748
S 0.942698 -0.133901 0.300955
O 0.751409 -0.064264 1.756176
O 1.645346 -1.207426 -0.454655
O 1.402838 1.343305 -0.189057
H 2.227482 1.248798 -1.081705
9
Time step 2989
C -1.052917 0.007004 -0.311597
F -1.236284 0.357617 -1.618246
F -1.362893 0.986818 0.539720
F -1.637151 -1.250431 -0.109959
S 0.942154 -0.133336 0.300016
O 0.750964 -0.064238 1.757308
O 1.645013 -1.208555 -0.454346
O 1.401884 1.343656 -0.189074
H 2.231938 1.249826 -1.081752
9
Time step 2990
C -1.052778 0.006174 -0.312952
F -1.235946 0.357442 -1.617255
F -1.361835 0.986560 0.540183
F -1.636491 -1.249845 -0.110169
S 0.941604 -0.132775 0.299075
O 0.750525 -0.064213 1.758434
O 1.644677 -1.209675 -0.454032
O 1.400952 1.344007 -0.189112
H 2.236063 1.250867 -1.081442
9
Time step 2991
C -1.052622 0.005337 -0.314307
F -1.235606 0.357265 -1.616256
F -1.360783 0.986296 0.540642
F -1.635829 -1.249245 -0.110379
S 0.941046 -0.132221 0.298130
O 0.750091 -0.064189 1.759553
O 1.644339 -1.210786 -0.453711
O 1.400043 1.344358 -0.189172
H 2.239853 1.251923 -1.080776
9
Time step 2992
C -1.052449 0.004494 -0.315660
F -1.235266 0.357085 -1.615249
F -1.359739 0.986026 0.541095
F -1.635163 -1.248631 -0.110588
S 0.940483 -0.131672 0.297184
O 0.749661 -0.064167 1.760665
O 1.643997 -1.211889 -0.453384
O 1.399157 1.344710 -0.189254
H 2.243309 1.252992 -1.079753
9
Time step 2993
C -1.052259 0.003645 -0.317010
F -1.234924 0.356904 -1.614233
F -1.358701 0.985751 0.541543
F -1.634493 -1.248003 -0.110798
S 0.939912 -0.131129 0.296235
O 0.749237 -0.064146 1.761768
O 1.643653 -1.212983 -0.453049
O 1.398293 1.345063 -0.189359
H 2.246427 1.254075 -1.078374
9
Time step 2994
C -1.052051 0.002788 -0.318358
F -1.234582 0.356722 -1.613208
F -1.357670 0.985471 0.541986
F -1.633820 -1.247362 -0.111009
S 0.939336 -0.130592 0.295284
O 0.748818 -0.064126 1.762864
O 1.643306 -1.214068 -0.452708
O 1.397452 1.345417 -0.189486
H 2.249207 1.255171 -1.076639
9
Time step 2995
C -1.051824 0.001921 -0.319701
F -1.234240 0.356537 -1.612174
F -1.356646 0.985187 0.542424
F -1.633145 -1.246708 -0.111221
S 0.938752 -0.130061 0.294331
O 0.748403 -0.064107 1.763950
O 1.642955 -1.215145 -0.452360
O 1.396633 1.345773 -0.189637
H 2.251645 1.256282 -1.074549
9
Time step 2996
C -1.051576 0.001042 -0.321042
F -1.233897 0.356352 -1.611132
F -1.355629 0.984899 0.542858
F -1.632467 -1.246039 -0.111435
S 0.938162 -0.129536 0.293378
O 0.747994 -0.064090 1.765028
O 1.642601 -1.216213 -0.452006
O 1.395837 1.346130 -0.189811
H 2.253742 1.257407 -1.072103
9
Time step 2997
C -1.051308 0.000150 -0.322378
F -1.233554 0.356165 -1.610082
F -1.354619 0.984607 0.543287
F -1.631785 -1.245356 -0.111650
S 0.937565 -0.129016 0.292425
O 0.747590 -0.064075 1.766096
O 1.642244 -1.217272 -0.451645
O 1.395064 1.346490 -0.190008
H 2.255494 1.258545 -1.069304
9
Time step 2998
C -1.051020 -0.000757 -0.323712
F -1.233211 0.355979 -1.609025
F -1.353616 0.984312 0.543711
F -1.631101 -1.244658 -0.111866
S 0.936961 -0.128503 0.291471
O 0.747192 -0.064061 1.767154
O 1.641884 -1.218322 -0.451277
O 1.394314 1.346851 -0.190229
H 2.256900 1.259694 -1.066152
9
Time step 2999
C -1.050714 -0.001679 -0.325041
F -1.232867 0.355793 -1.607962
F -1.352620 0.984012 0.544131
F -1.630413 -1.243946 -0.112081
S 0.936349 -0.127995 0.290517
O 0.746799 -0.064049 1.768201
O 1.641520 -1.219362 -0.450904
O 1.393588 1.347214 -0.190473
H 2.257960 1.260853 -1.062650
9
Time step 3000
C -1.050714 -0.001679 -0.325041
F -1.232867 0.355793 -1.607962
F -1.352620 0.984012 0.544131
F -1.630413 -1.243946 -0.112081
S 0.936349 -0.127995 0.290517
O 0.746799 -0.064049 1.768201
O 1.641520 -1.219362 -0.450904
O 1.393588 1.347214 -0.190473
H 2.257960 1.260853 -1.062650
