9
IRC Reverse Point 11
C    -0.111683     1.061388    -0.156277
F    -0.576818     2.182070     0.362614
F    -0.941673     0.657908    -1.101605
F     1.059256     1.310801    -0.709531
S     0.303237    -1.475197     0.601674
O    -1.192241    -1.925601     0.215681
O    -0.005036     0.156476     0.857279
O     1.022014    -1.609831    -0.628085
H    -1.760582    -1.948072     0.997141
9
IRC Reverse Point 10
C    -0.111683     1.061388    -0.156277
F    -0.576818     2.182070     0.362614
F    -0.941673     0.657908    -1.101605
F     1.059256     1.310801    -0.709531
S     0.303237    -1.475197     0.601674
O    -1.192241    -1.925601     0.215681
O    -0.005036     0.156476     0.857279
O     1.022014    -1.609831    -0.628085
H    -1.760582    -1.948072     0.997141
9
IRC Reverse Point 9
C    -0.111683     1.061388    -0.156277
F    -0.576818     2.182070     0.362614
F    -0.941673     0.657908    -1.101605
F     1.059256     1.310801    -0.709531
S     0.303237    -1.475197     0.601674
O    -1.192241    -1.925601     0.215681
O    -0.005036     0.156476     0.857279
O     1.022014    -1.609831    -0.628085
H    -1.760582    -1.948072     0.997141
9
IRC Reverse Point 8
C    -0.112094     1.060914    -0.156115
F    -0.576459     2.181897     0.362844
F    -0.942416     0.658053    -1.101409
F     1.058997     1.309576    -0.709410
S     0.303916    -1.475406     0.601371
O    -1.191541    -1.926364     0.215857
O    -0.006258     0.155786     0.857242
O     1.023049    -1.609118    -0.628276
H    -1.760722    -1.945395     0.996787
9
IRC Reverse Point 7
C    -0.111937     1.061515    -0.156614
F    -0.581795     2.179091     0.364663
F    -0.939455     0.657235    -1.103292
F     1.058588     1.316600    -0.708308
S     0.305148    -1.477053     0.601889
O    -1.191931    -1.928772     0.216937
O    -0.000699     0.154933     0.855821
O     1.021170    -1.614180    -0.629105
H    -1.762615    -1.939427     0.996898
9
IRC Reverse Point 6
C    -0.108757     1.065426    -0.158290
F    -0.596904     2.177206     0.359424
F    -0.912136     0.665115    -1.127727
F     1.072422     1.332356    -0.683613
S     0.303118    -1.481268     0.592972
O    -1.195156    -1.935332     0.233743
O    -0.011903     0.153880     0.848868
O     0.999923    -1.617385    -0.648918
H    -1.754134    -1.950057     1.022431
9
IRC Reverse Point 5
C    -0.116866     1.050692    -0.147608
F    -0.590129     2.167221     0.374977
F    -0.966617     0.622654    -1.065714
F     1.031242     1.319780    -0.736802
S     0.308913    -1.489821     0.607835
O    -1.179061    -1.899084     0.192299
O     0.035706     0.155937     0.868072
O     1.047484    -1.636973    -0.608502
H    -1.774197    -1.880463     0.954334
9
IRC Reverse Point 4
C    -0.117734     1.057555    -0.154048
F    -0.564228     2.182878     0.371306
F    -0.962689     0.664740    -1.092211
F     1.050290     1.292971    -0.716274
S     0.325016    -1.478463     0.598925
O    -1.188493    -1.951762     0.217465
O    -0.024422     0.148657     0.854816
O     1.052854    -1.604888    -0.626097
H    -1.774120    -1.901747     0.985008
9
IRC Reverse Point 3
C    -0.102863     1.091796    -0.170164
F    -0.517266     2.232585     0.347942
F    -0.919466     0.754062    -1.153326
F     1.102135     1.273356    -0.671256
S     0.270395    -1.457734     0.589216
O    -1.167350    -2.084066     0.271186
O    -0.106207     0.169516     0.830270
O     0.975931    -1.548479    -0.652618
H    -1.738837    -2.021095     1.047640
9
IRC Reverse Point 2
C    -0.126342     1.071117    -0.171799
F    -0.555064     2.194627     0.366066
F    -0.899028     0.760361    -1.189110
F     1.102567     1.257043    -0.610980
S     0.339944    -1.446939     0.588246
O    -1.131836    -2.018918     0.289176
O    -0.165412     0.116308     0.812118
O     0.945420    -1.598250    -0.698867
H    -1.713776    -1.925408     1.054039
9
IRC Reverse Point 1
C    -0.077435     1.155904    -0.190519
F    -0.459830     2.308643     0.315638
F    -0.900935     0.811821    -1.151493
F     1.134358     1.294635    -0.691210
S     0.398281    -1.337748     0.669472
O    -1.173587    -2.228697     0.321615
O    -0.077808     0.239759     0.840017
O     0.818497    -1.580438    -0.669995
H    -1.865067    -2.253938     0.995365
9
IRC Reverse Point 0
C    -0.048482     1.210785    -0.203125
F    -0.397896     2.381382     0.283149
F    -0.899406     0.856413    -1.133442
F     1.154545     1.313055    -0.733274
S     0.413575    -1.271232     0.712404
O    -1.192524    -2.356361     0.341021
O    -0.035698     0.316279     0.851659
O     0.728443    -1.576531    -0.639581
H    -1.926084    -2.463848     0.960079
9
IRC Forward Point 0
C    -0.040936     1.220924    -0.187346
F    -0.397201     2.400408     0.274184
F    -0.889727     0.868242    -1.141374
F     1.160421     1.317477    -0.729593
S     0.750890    -1.084766     0.787803
O    -1.185162    -2.496412     0.055395
O    -0.090112     0.341514     0.851252
O     0.057156    -1.869901    -0.398085
H    -1.601728    -2.682826    -0.793260
9
IRC Forward Point 1
C    -0.004049     1.270614    -0.207510
F    -0.711003     2.272632     0.266418
F    -0.459650     0.961112    -1.413486
F     1.252169     1.658699    -0.337321
S     0.781309    -1.129054     0.476892
O    -1.064856    -2.810675     0.110005
O    -0.146411     0.232517     0.666238
O    -0.031496    -2.023361    -0.553171
H    -1.852413    -2.417824    -0.289088
9
IRC Forward Point 2
C     0.048052     1.361786    -0.214142
F    -0.691940     2.329345     0.281791
F    -0.314077     1.141433    -1.465755
F     1.310743     1.754764    -0.218287
S     0.740284    -1.102110     0.306696
O    -1.096260    -2.835004     0.288883
O    -0.150042     0.267753     0.582747
O    -0.209795    -2.034954    -0.554968
H    -1.873365    -2.868353    -0.287990
9
IRC Forward Point 3
C     0.009206     1.252389    -0.200744
F    -0.860344     2.152325     0.200917
F    -0.278698     0.903103    -1.445277
F     1.216140     1.794583    -0.202156
S     0.829522    -1.154845     0.338156
O    -1.075352    -2.799556     0.106199
O    -0.077596     0.203172     0.664861
O    -0.107012    -2.002653    -0.628337
H    -1.892265    -2.333858    -0.114645
9
IRC Forward Point 4
C     0.004426     1.261722    -0.201894
F    -0.801917     2.208852     0.226601
F    -0.355205     0.915678    -1.425825
F     1.235530     1.743025    -0.259896
S     0.828957    -1.137272     0.386572
O    -1.069551    -2.792050     0.124590
O    -0.089209     0.219533     0.674183
O    -0.094674    -1.986593    -0.592415
H    -1.894755    -2.418235    -0.212939
9
IRC Forward Point 5
C     0.001740     1.258298    -0.203010
F    -0.811301     2.201090     0.221234
F    -0.343943     0.917202    -1.433372
F     1.232018     1.742286    -0.246107
S     0.822221    -1.141589     0.385319
O    -1.064564    -2.805349     0.102174
O    -0.101710     0.211428     0.666280
O    -0.085926    -1.996378    -0.604463
H    -1.884935    -2.372327    -0.169079
9
IRC Forward Point 6
C     0.003640     1.260966    -0.203007
F    -0.810321     2.202237     0.222443
F    -0.340686     0.921745    -1.434287
F     1.233693     1.746045    -0.244459
S     0.821856    -1.140381     0.380349
O    -1.065119    -2.805031     0.110972
O    -0.100194     0.213366     0.665158
O    -0.090811    -1.997001    -0.603175
H    -1.888457    -2.387286    -0.175018
9
IRC Forward Point 7
C     0.003237     1.260367    -0.203023
F    -0.810430     2.202081     0.222081
F    -0.341375     0.920601    -1.434018
F     1.233414     1.745083    -0.244820
S     0.821936    -1.140452     0.381435
O    -1.064851    -2.805293     0.108787
O    -0.100607     0.213101     0.665582
O    -0.089937    -1.996548    -0.603463
H    -1.887786    -2.384280    -0.173585
9
IRC Forward Point 8
C     0.003237     1.260367    -0.203023
F    -0.810430     2.202081     0.222081
F    -0.341375     0.920601    -1.434018
F     1.233414     1.745083    -0.244820
S     0.821936    -1.140452     0.381435
O    -1.064851    -2.805293     0.108787
O    -0.100607     0.213101     0.665582
O    -0.089937    -1.996548    -0.603463
H    -1.887786    -2.384280    -0.173585
9
IRC Forward Point 9
C     0.003237     1.260367    -0.203023
F    -0.810430     2.202081     0.222081
F    -0.341375     0.920601    -1.434018
F     1.233414     1.745083    -0.244820
S     0.821936    -1.140452     0.381435
O    -1.064851    -2.805293     0.108787
O    -0.100607     0.213101     0.665582
O    -0.089937    -1.996548    -0.603463
H    -1.887786    -2.384280    -0.173585
