9
IRC Reverse Point 22
C    -1.086620    -0.282758     0.719832
F    -2.316008    -0.708301     0.529908
F    -1.131172     0.982086     1.123251
F    -0.539061    -0.989292     1.702759
S     1.221141     0.075162    -0.505135
O     1.700465    -0.706692    -1.607676
O    -0.404403    -0.423777    -0.437927
O     0.951098     1.551231    -1.029506
H     0.665833     1.544331    -1.957249
9
IRC Reverse Point 21
C    -1.086620    -0.282758     0.719832
F    -2.316008    -0.708301     0.529908
F    -1.131172     0.982086     1.123251
F    -0.539061    -0.989292     1.702759
S     1.221141     0.075162    -0.505135
O     1.700465    -0.706692    -1.607676
O    -0.404403    -0.423777    -0.437927
O     0.951098     1.551231    -1.029506
H     0.665833     1.544331    -1.957249
9
IRC Reverse Point 20
C    -1.086620    -0.282758     0.719832
F    -2.316008    -0.708301     0.529908
F    -1.131172     0.982086     1.123251
F    -0.539061    -0.989292     1.702759
S     1.221141     0.075162    -0.505135
O     1.700465    -0.706692    -1.607676
O    -0.404403    -0.423777    -0.437927
O     0.951098     1.551231    -1.029506
H     0.665833     1.544331    -1.957249
9
IRC Reverse Point 19
C    -1.086647    -0.282754     0.720091
F    -2.316257    -0.707384     0.529517
F    -1.130494     0.981606     1.124851
F    -0.539639    -0.990683     1.702310
S     1.221190     0.075914    -0.504995
O     1.701250    -0.706683    -1.606705
O    -0.404291    -0.423157    -0.437787
O     0.950267     1.551460    -1.030504
H     0.665894     1.543672    -1.958522
9
IRC Reverse Point 18
C    -1.086873    -0.282533     0.720353
F    -2.316188    -0.708115     0.529765
F    -1.131629     0.981753     1.124642
F    -0.539450    -0.989862     1.702727
S     1.221552     0.075373    -0.505403
O     1.700987    -0.706349    -1.608065
O    -0.404288    -0.423096    -0.437695
O     0.950191     1.551298    -1.029850
H     0.666970     1.543519    -1.958216
9
IRC Reverse Point 17
C    -1.087833    -0.280846     0.719818
F    -2.314342    -0.715785     0.532695
F    -1.140968     0.983536     1.121103
F    -0.533016    -0.982122     1.702211
S     1.221321     0.070371    -0.506394
O     1.697569    -0.707928    -1.613143
O    -0.406202    -0.419190    -0.440466
O     0.955893     1.549850    -1.025314
H     0.668849     1.544104    -1.952253
9
IRC Reverse Point 16
C    -1.090965    -0.279330     0.719487
F    -2.311995    -0.733974     0.543316
F    -1.161271     0.985623     1.114970
F    -0.518489    -0.967409     1.701159
S     1.217893     0.062954    -0.507750
O     1.687886    -0.707582    -1.622916
O    -0.414730    -0.412501    -0.445741
O     0.967890     1.548303    -1.018276
H     0.685053     1.545906    -1.945990
9
IRC Reverse Point 15
C    -1.082680    -0.272225     0.701498
F    -2.296712    -0.754658     0.555981
F    -1.169679     1.018692     0.996231
F    -0.506930    -0.875716     1.734390
S     1.227438     0.005254    -0.522167
O     1.659139    -0.687421    -1.702443
O    -0.396452    -0.485321    -0.449076
O     0.973654     1.523160    -0.931361
H     0.653496     1.570226    -1.844795
9
IRC Reverse Point 14
C    -1.100848    -0.282811     0.727756
F    -2.317496    -0.746944     0.548610
F    -1.184193     0.952239     1.211168
F    -0.492948    -1.024566     1.647575
S     1.198187     0.108627    -0.488999
O     1.690478    -0.731208    -1.542351
O    -0.451328    -0.317848    -0.456275
O     1.001386     1.566645    -1.091459
H     0.718036     1.517856    -2.017768
9
IRC Reverse Point 13
C    -1.106720    -0.290339     0.742147
F    -2.328284    -0.731676     0.539720
F    -1.177780     0.904800     1.320154
F    -0.495666    -1.104104     1.597070
S     1.182159     0.174392    -0.473571
O     1.693828    -0.739396    -1.453353
O    -0.470707    -0.237246    -0.445407
O     0.999372     1.586858    -1.176418
H     0.765070     1.478701    -2.112085
9
IRC Reverse Point 12
C    -1.109858    -0.294010     0.749452
F    -2.325696    -0.750366     0.547081
F    -1.195676     0.895318     1.338220
F    -0.484563    -1.106686     1.595855
S     1.170315     0.186602    -0.477161
O     1.667828    -0.741243    -1.451081
O    -0.481161    -0.221502    -0.438015
O     0.994170     1.593702    -1.188095
H     0.825915     1.480174    -2.137998
9
IRC Reverse Point 11
C    -1.104513    -0.298365     0.746465
F    -2.344300    -0.670842     0.513192
F    -1.126560     0.869801     1.386459
F    -0.541453    -1.181917     1.564812
S     1.181744     0.225397    -0.456326
O     1.739967    -0.717886    -1.379939
O    -0.460487    -0.212917    -0.427350
O     0.996379     1.590633    -1.245347
H     0.720496     1.438087    -2.163708
9
IRC Reverse Point 10
C    -1.107009    -0.274995     0.709023
F    -2.301060    -0.807870     0.583886
F    -1.246004     0.964276     1.188535
F    -0.420261    -0.964317     1.619405
S     1.189019     0.074234    -0.489794
O     1.677710    -0.767899    -1.540264
O    -0.506007    -0.278268    -0.487904
O     1.065981     1.545129    -1.070703
H     0.708904     1.551699    -1.973927
9
IRC Reverse Point 9
C    -1.105625    -0.287821     0.741679
F    -2.346042    -0.651840     0.499757
F    -1.118191     0.840807     1.438231
F    -0.530427    -1.212248     1.504416
S     1.204618     0.250463    -0.451785
O     1.762722    -0.764232    -1.297501
O    -0.467088    -0.149783    -0.442427
O     0.985947     1.591509    -1.274187
H     0.675360     1.425134    -2.179924
9
IRC Reverse Point 8
C    -1.116730    -0.291279     0.709284
F    -2.375316    -0.610352     0.514316
F    -1.052708     0.938213     1.240947
F    -0.588430    -1.123295     1.612824
S     1.290352     0.161987    -0.489031
O     1.894378    -0.681165    -1.469553
O    -0.512110    -0.359149    -0.448626
O     0.993139     1.567757    -1.137372
H     0.528697     1.439273    -1.994530
9
IRC Reverse Point 7
C    -1.083867    -0.261468     0.709359
F    -2.311658    -0.660275     0.467050
F    -1.131298     0.891953     1.354309
F    -0.500325    -1.139500     1.513747
S     1.219678     0.172754    -0.447329
O     1.781475    -0.818628    -1.320194
O    -0.419192    -0.160413    -0.482253
O     1.021392     1.551749    -1.228765
H     0.485068     1.465818    -2.027666
9
IRC Reverse Point 6
C    -1.031755    -0.263246     0.660687
F    -2.281121    -0.576950     0.385164
F    -1.005891     0.995868     1.079469
F    -0.620662    -1.029698     1.656606
S     1.294649     0.096037    -0.466271
O     1.779061    -0.788924    -1.480060
O    -0.271926    -0.444113    -0.457087
O     0.928633     1.537554    -1.069964
H     0.270285     1.515462    -1.770283
9
IRC Reverse Point 5
C    -1.055847    -0.258102     0.651713
F    -2.317183    -0.527526     0.396645
F    -0.980776     0.972464     1.164366
F    -0.616822    -1.097107     1.581004
S     1.314533     0.132051    -0.483425
O     1.942611    -0.811633    -1.346956
O    -0.363870    -0.363165    -0.490630
O     1.030966     1.462486    -1.326426
H     0.107660     1.532523    -1.608032
9
IRC Reverse Point 4
C    -1.032541    -0.288694     0.628384
F    -2.198020    -0.788756     0.422799
F    -1.062675     1.003827     0.956922
F    -0.374971    -0.908369     1.605132
S     1.096828     0.084300    -0.450019
O     1.625800    -0.921635    -1.294644
O    -0.455274    -0.451490    -0.520106
O     1.157124     1.512162    -1.205959
H     0.305003     1.800644    -1.604252
9
IRC Reverse Point 3
C    -1.026853    -0.323820     0.658390
F    -2.226967    -0.674551     0.376504
F    -0.927266     0.882815     1.210066
F    -0.421165    -1.166419     1.488352
S     1.015830     0.243390    -0.406897
O     1.650573    -0.873171    -1.003289
O    -0.477414    -0.330406    -0.514853
O     1.150320     1.519635    -1.396108
H     0.324215     1.764517    -1.873907
9
IRC Reverse Point 2
C    -1.055664    -0.318284     0.676387
F    -2.340537    -0.253560     0.401620
F    -0.761389     0.600484     1.590649
F    -0.791265    -1.501445     1.205210
S     1.213575     0.471750    -0.386679
O     2.062271    -0.606919    -0.777446
O    -0.377804    -0.118126    -0.472440
O     1.008205     1.398407    -1.678942
H     0.103881     1.369684    -2.020102
9
IRC Reverse Point 1
C    -1.081165    -0.285980     0.613381
F    -2.340164    -0.536574     0.301034
F    -1.042338     0.921332     1.182883
F    -0.700816    -1.167003     1.528381
S     1.370031     0.187382    -0.435823
O     2.075629    -0.711627    -1.290276
O    -0.319488    -0.345283    -0.498530
O     1.010041     1.489294    -1.287525
H     0.089543     1.490449    -1.575268
9
IRC Reverse Point 0
C    -1.115529    -0.283026     0.651225
F    -2.401521    -0.339902     0.310983
F    -0.971250     0.820104     1.397149
F    -0.872212    -1.324848     1.436987
S     1.472145     0.300921    -0.479485
O     2.297414    -0.600212    -1.216325
O    -0.335288    -0.268877    -0.442238
O     0.973691     1.399335    -1.506038
H     0.013823     1.338495    -1.614000
9
IRC Forward Point 0
C    -1.721834    -0.306899     0.823581
F    -2.047844    -0.903775    -0.327303
F    -2.017164     0.987917     0.669689
F    -2.493212    -0.793379     1.774440
S     2.159245     1.031573    -1.978218
O     3.197401     0.187296    -2.477206
O    -0.447555    -0.504355     1.155325
O     1.313172     0.510117    -0.943886
H     0.137949    -0.167010     0.457260
9
IRC Forward Point 1
C    -1.711815    -0.280632     0.839562
F    -2.070842    -0.832676    -0.324007
F    -1.952589     1.029232     0.721466
F    -2.497007    -0.757387     1.783905
S     2.010390     0.875003    -2.142852
O     3.365021     0.441896    -2.268296
O    -0.444849    -0.540039     1.156016
O     1.236296     0.344794    -1.057858
H     0.145552    -0.238705     0.445746
9
IRC Forward Point 2
C    -1.688419    -0.304669     0.814213
F    -2.002629    -0.836162    -0.372067
F    -1.985560     0.995823     0.730350
F    -2.468710    -0.845326     1.727630
S     2.045541     0.934576    -2.096514
O     3.214572     0.141786    -2.297378
O    -0.417683    -0.518584     1.148032
O     1.207695     0.634435    -0.971520
H     0.175351    -0.160394     0.470937
9
IRC Forward Point 3
C    -1.715915    -0.335265     0.795340
F    -1.945133    -1.113196    -0.267253
F    -2.129660     0.889784     0.457792
F    -2.467859    -0.764288     1.788643
S     2.542063     0.935714    -1.652109
O     2.701738     0.107403    -2.803194
O    -0.440985    -0.358317     1.178268
O     1.397449     0.720444    -0.814213
H     0.138462    -0.040794     0.470410
9
IRC Forward Point 4
C    -1.708352    -0.307673     0.827740
F    -2.034605    -0.916389    -0.316707
F    -2.033980     0.979452     0.671926
F    -2.458711    -0.807306     1.788372
S     2.107708     0.971626    -2.067122
O     3.225181     0.139766    -2.373904
O    -0.427071    -0.475048     1.148280
O     1.262435     0.593614    -0.971276
H     0.147553    -0.136556     0.446374
9
IRC Forward Point 5
C    -1.692940    -0.304556     0.821975
F    -2.002035    -0.887256    -0.341148
F    -2.013876     0.986221     0.689227
F    -2.459649    -0.823379     1.759243
S     2.057869     0.933072    -2.102720
O     3.221139     0.135621    -2.317595
O    -0.417246    -0.482235     1.158347
O     1.219534     0.620767    -0.981328
H     0.167363    -0.136770     0.467679
9
IRC Forward Point 6
C    -1.706896    -0.321270     0.814952
F    -1.997764    -0.969296    -0.317419
F    -2.073833     0.949607     0.622770
F    -2.451851    -0.822571     1.779012
S     2.222728     1.034773    -1.955233
O     3.060738     0.011553    -2.490467
O    -0.424794    -0.437415     1.154469
O     1.304508     0.680593    -0.911420
H     0.147322    -0.084488     0.457018
9
IRC Forward Point 7
C    -1.694589    -0.308211     0.832313
F    -2.064042    -0.855902    -0.330215
F    -2.017116     0.986281     0.754470
F    -2.414941    -0.853600     1.791300
S     2.096525     0.922535    -2.122540
O     3.269099     0.113337    -2.199621
O    -0.404250    -0.499056     1.098638
O     1.161692     0.664975    -1.064879
H     0.147780    -0.128874     0.394215
9
IRC Forward Point 8
C    -1.714109    -0.319566     0.832907
F    -2.078524    -0.926402    -0.300877
F    -2.070328     0.962000     0.702118
F    -2.412004    -0.841049     1.821330
S     2.214631     1.014796    -2.011961
O     3.193851     0.035067    -2.353719
O    -0.417128    -0.465347     1.095998
O     1.241679     0.680186    -1.012049
H     0.122091    -0.098200     0.379936
9
IRC Forward Point 9
C    -1.701825    -0.318715     0.854515
F    -2.204314    -0.837895    -0.269987
F    -2.037054     0.974587     0.852329
F    -2.300382    -0.896644     1.876563
S     2.200952     0.929156    -2.117995
O     3.335069     0.072567    -1.995544
O    -0.388158    -0.506770     0.961854
O     1.093382     0.725482    -1.228004
H     0.082488    -0.100283     0.219951
9
IRC Forward Point 10
C    -1.699597    -0.323436     0.834188
F    -2.090564    -0.893427    -0.310087
F    -2.065530     0.959625     0.756777
F    -2.369050    -0.882599     1.821791
S     2.199456     0.983639    -2.053597
O     3.208472    -0.012407    -2.214887
O    -0.395532    -0.470665     1.058107
O     1.170061     0.755288    -1.079907
H     0.122442    -0.074534     0.341297
9
IRC Forward Point 11
C    -1.691327    -0.311820     0.851243
F    -2.184424    -0.790506    -0.295656
F    -2.002493     0.986965     0.879414
F    -2.317564    -0.905889     1.847146
S     2.147886     0.870400    -2.165805
O     3.347958     0.133219    -1.935571
O    -0.383300    -0.528231     0.973245
O     1.060559     0.704094    -1.243525
H     0.102864    -0.116748     0.243192
9
IRC Forward Point 12
C    -1.697648    -0.320017     0.837893
F    -2.114482    -0.857019    -0.313310
F    -2.045225     0.969673     0.796192
F    -2.360515    -0.892298     1.822435
S     2.173096     0.954396    -2.091725
O     3.256182     0.026491    -2.138977
O    -0.392735    -0.492094     1.037864
O     1.141557     0.743631    -1.116441
H     0.119928    -0.091279     0.319751
9
IRC Forward Point 13
C    -1.696809    -0.318751     0.847271
F    -2.167784    -0.828747    -0.295227
F    -2.032501     0.974573     0.846043
F    -2.323022    -0.904692     1.847787
S     2.179927     0.926456    -2.119543
O     3.307858     0.057665    -2.024043
O    -0.386438    -0.507302     0.988196
O     1.097938     0.738527    -1.195467
H     0.100990    -0.096244     0.258664
9
IRC Forward Point 14
C    -1.692351    -0.304076     0.848489
F    -2.081786    -0.742223    -0.351193
F    -1.917838     1.020509     0.847442
F    -2.459021    -0.845182     1.768185
S     2.027553     0.793305    -2.245887
O     3.371748     0.354866    -2.038988
O    -0.416469    -0.587696     1.103855
O     1.118582     0.537624    -1.165649
H     0.129740    -0.185643     0.387428
9
IRC Forward Point 15
C    -1.687051    -0.310139     0.861361
F    -2.234775    -0.784051    -0.261726
F    -1.989261     0.991343     0.904554
F    -2.269988    -0.901074     1.884490
S     2.165735     0.833158    -2.187025
O     3.376704     0.183786    -1.804636
O    -0.375523    -0.530565     0.924322
O     1.015057     0.673180    -1.344307
H     0.079259    -0.114152     0.176649
9
IRC Forward Point 16
C    -1.694636    -0.316267     0.851662
F    -2.172047    -0.841315    -0.281210
F    -2.037135     0.975316     0.838775
F    -2.309682    -0.894178     1.863653
S     2.173447     0.902241    -2.140695
O     3.326451     0.077360    -1.979448
O    -0.382142    -0.495975     0.984238
O     1.078793     0.724507    -1.229617
H     0.097108    -0.090202     0.246324
9
IRC Forward Point 17
C    -1.753489    -0.264073     0.894888
F    -2.241900    -0.876595    -0.206507
F    -2.188117     0.962530     0.917021
F    -2.270430    -0.909003     1.949939
S     2.314047     0.964377    -2.110934
O     3.491751     0.069187    -2.065142
O    -0.437345    -0.485628     0.909576
O     1.133842     0.684478    -1.278183
H     0.031800    -0.103788     0.143024
9
IRC Forward Point 18
C    -1.733929    -0.288182     0.881660
F    -2.242179    -0.867194    -0.220956
F    -2.125510     0.969099     0.887044
F    -2.276379    -0.896092     1.932954
S     2.275014     0.951780    -2.116701
O     3.436525     0.080744    -2.022190
O    -0.417276    -0.493288     0.924651
O     1.120470     0.690877    -1.272510
H     0.043421    -0.106259     0.159730
9
IRC Forward Point 19
C    -1.723441    -0.296260     0.874118
F    -2.246504    -0.864931    -0.225784
F    -2.097452     0.970638     0.873748
F    -2.271882    -0.889324     1.925141
S     2.258986     0.944460    -2.111920
O     3.396514     0.088247    -1.996235
O    -0.406781    -0.494368     0.925600
O     1.120851     0.690917    -1.273286
H     0.049868    -0.107894     0.162300
9
IRC Forward Point 20
C    -1.711113    -0.318928     0.864745
F    -2.258173    -0.859155    -0.230931
F    -2.040785     0.974234     0.848338
F    -2.277227    -0.876664     1.914038
S     2.232900     0.938855    -2.117361
O     3.371352     0.100343    -1.968742
O    -0.395547    -0.499533     0.937874
O     1.106080     0.693762    -1.269164
H     0.052672    -0.111428     0.174885
9
IRC Forward Point 21
C    -1.695816    -0.317020     0.849531
F    -2.159346    -0.851166    -0.284952
F    -2.044034     0.972759     0.825348
F    -2.318490    -0.891734     1.858726
S     2.175684     0.914923    -2.129915
O     3.311805     0.059013    -2.016963
O    -0.383989    -0.490322     0.996333
O     1.093319     0.732185    -1.205250
H     0.101025    -0.087153     0.260823
9
IRC Forward Point 22
C    -1.695816    -0.317020     0.849531
F    -2.159346    -0.851166    -0.284952
F    -2.044034     0.972759     0.825348
F    -2.318490    -0.891734     1.858726
S     2.175684     0.914923    -2.129915
O     3.311805     0.059013    -2.016963
O    -0.383989    -0.490322     0.996333
O     1.093319     0.732185    -1.205250
H     0.101025    -0.087153     0.260823
9
IRC Forward Point 23
C    -1.695816    -0.317020     0.849531
F    -2.159346    -0.851166    -0.284952
F    -2.044034     0.972759     0.825348
F    -2.318490    -0.891734     1.858726
S     2.175684     0.914923    -2.129915
O     3.311805     0.059013    -2.016963
O    -0.383989    -0.490322     0.996333
O     1.093319     0.732185    -1.205250
H     0.101025    -0.087153     0.260823
