%chk=CF2O_1200K_step0084.chk
%mem=8GB
%nprocshared=4
# B3LYP/6-31G(d) pop=full density=current

CF2O Time step 84

0 1
F       1.271363     -0.587495      0.067114
C       0.153922      0.152277     -0.146181
O       0.005354      1.327551     -0.061815
F      -1.373093     -0.626364      0.077261

