%chk=CF2O_1200K_step0112.chk
%mem=8GB
%nprocshared=4
# B3LYP/6-31G(d) pop=full density=current

CF2O Time step 112

0 1
F       1.290290     -0.588309      0.071243
C       0.162408      0.207625     -0.162264
O       0.014477      1.300484     -0.059967
F      -1.405061     -0.637722      0.081735

