%chk=CF2O_1200K_step0024.chk
%mem=8GB
%nprocshared=4
# B3LYP/6-31G(d) pop=full density=current

CF2O Time step 24

0 1
F       1.196819     -0.580987      0.047288
C       0.066470      0.070958     -0.055712
O       0.001327      1.337211     -0.080667
F      -1.239921     -0.589642      0.055816

