%chk=CF2O_1200K_step0142.chk
%mem=8GB
%nprocshared=4
# B3LYP/6-31G(d) pop=full density=current

CF2O Time step 142

0 1
F       1.296794     -0.584050      0.070710
C       0.162512      0.210598     -0.161124
O       0.023922      1.301554     -0.060723
F      -1.419582     -0.644760      0.082184

