%chk=CF2O_1200K_step0140.chk
%mem=8GB
%nprocshared=4
# B3LYP/6-31G(d) pop=full density=current

CF2O Time step 140

0 1
F       1.296809     -0.584510      0.070903
C       0.162688      0.212744     -0.161730
O       0.023368      1.300149     -0.060625
F      -1.419242     -0.644473      0.082291

