%chk=CF2O_1200K_step0178.chk
%mem=8GB
%nprocshared=4
# B3LYP/6-31G(d) pop=full density=current

CF2O Time step 178

0 1
F       1.285408     -0.572310      0.063477
C       0.151518      0.141354     -0.135268
O       0.034247      1.340757     -0.065354
F      -1.409945     -0.645768      0.076984

