%chk=CF2O_1200K_step0008.chk
%mem=8GB
%nprocshared=4
# B3LYP/6-31G(d) pop=full density=current

CF2O Time step 8

0 1
F       1.171184     -0.580880      0.040765
C       0.025072      0.078308     -0.024087
O       0.003609      1.318012     -0.087695
F      -1.190058     -0.578227      0.048280

