9
IRC Reverse Point 13
C    -0.980670     0.002668     0.656596
F    -1.530989     1.105149     0.147747
F    -1.325375    -0.085214     1.922187
F    -1.495219    -1.028486    -0.002005
S     1.078813    -0.061971    -0.980811
O     1.565512    -1.395831    -1.120162
O     0.365410     0.039611     0.577436
O     2.359057     0.775834    -0.516774
H     2.130396     1.691091    -0.304993
9
IRC Reverse Point 12
C    -0.980670     0.002668     0.656596
F    -1.530989     1.105149     0.147747
F    -1.325375    -0.085214     1.922187
F    -1.495219    -1.028486    -0.002005
S     1.078813    -0.061971    -0.980811
O     1.565512    -1.395831    -1.120162
O     0.365410     0.039611     0.577436
O     2.359057     0.775834    -0.516774
H     2.130396     1.691091    -0.304993
9
IRC Reverse Point 11
C    -0.980670     0.002668     0.656596
F    -1.530989     1.105149     0.147747
F    -1.325375    -0.085214     1.922187
F    -1.495219    -1.028486    -0.002005
S     1.078813    -0.061971    -0.980811
O     1.565512    -1.395831    -1.120162
O     0.365410     0.039611     0.577436
O     2.359057     0.775834    -0.516774
H     2.130396     1.691091    -0.304993
9
IRC Reverse Point 10
C    -0.981033     0.002758     0.656762
F    -1.530791     1.106605     0.150246
F    -1.326042    -0.087349     1.922203
F    -1.496373    -1.026997    -0.003428
S     1.079879    -0.062810    -0.980932
O     1.567093    -1.396671    -1.118074
O     0.365012     0.039240     0.576766
O     2.359321     0.776307    -0.517099
H     2.129868     1.691767    -0.307224
9
IRC Reverse Point 9
C    -0.982314     0.002840     0.655967
F    -1.537748     1.102697     0.147446
F    -1.322160    -0.083192     1.923574
F    -1.497944    -1.031877     0.004241
S     1.083025    -0.060121    -0.985536
O     1.565059    -1.396149    -1.122035
O     0.363110     0.044723     0.569480
O     2.362899     0.774739    -0.513796
H     2.133007     1.689191    -0.300121
9
IRC Reverse Point 8
C    -0.946805     0.039428     0.667492
F    -1.335792     1.293294     0.440349
F    -1.399327    -0.319541     1.846006
F    -1.518062    -0.719111    -0.268040
S     1.100417    -0.256344    -0.916361
O     1.802837    -1.496373    -0.874494
O     0.397099    -0.061127     0.644287
O     2.226377     0.841854    -0.635267
H     1.840189     1.720769    -0.524752
9
IRC Reverse Point 7
C    -0.985389    -0.015601     0.656937
F    -1.642084     0.954220     0.020729
F    -1.292894     0.044440     1.934818
F    -1.416125    -1.166325     0.164883
S     1.061585     0.056324    -1.020008
O     1.412049    -1.304073    -1.270574
O     0.352910     0.126708     0.542009
O     2.410158     0.719546    -0.474445
H     2.266724     1.627611    -0.175130
9
IRC Reverse Point 6
C    -0.985453    -0.046987     0.660402
F    -1.700021     0.718978    -0.164934
F    -1.342572     0.230415     1.897598
F    -1.297814    -1.304399     0.401027
S     1.039060     0.222988    -1.025491
O     1.207257    -1.129024    -1.451575
O     0.339774     0.185918     0.539817
O     2.460106     0.634921    -0.421387
H     2.446597     1.530040    -0.056237
9
IRC Reverse Point 5
C    -0.983544    -0.057339     0.662157
F    -1.706175     0.636071    -0.218787
F    -1.364957     0.288055     1.875323
F    -1.259796    -1.336097     0.481336
S     1.032237     0.275806    -1.023668
O     1.144946    -1.062817    -1.507037
O     0.337073     0.200332     0.541394
O     2.470116     0.607024    -0.410145
H     2.497035     1.491814    -0.021353
9
IRC Reverse Point 4
C    -0.982797    -0.060736     0.662728
F    -1.706232     0.610644    -0.234554
F    -1.371663     0.305420     1.867600
F    -1.249729    -1.344510     0.506253
S     1.030194     0.291531    -1.022766
O     1.126474    -1.041934    -1.523948
O     0.336591     0.202759     0.541693
O     2.472186     0.598738    -0.405684
H     2.511910     1.480939    -0.012102
9
IRC Reverse Point 3
C    -0.980495    -0.061901     0.663742
F    -1.698792     0.607930    -0.239121
F    -1.366890     0.315632     1.865924
F    -1.256841    -1.344855     0.516809
S     1.028115     0.291664    -1.025889
O     1.129323    -1.038466    -1.535288
O     0.340428     0.190152     0.539628
O     2.466901     0.600713    -0.401347
H     2.505184     1.481981    -0.005236
9
IRC Reverse Point 2
C    -0.980632    -0.064192     0.663860
F    -1.709515     0.561092    -0.263669
F    -1.394144     0.330690     1.851744
F    -1.216971    -1.358028     0.545373
S     1.022021     0.325635    -1.021433
O     1.091755    -1.005270    -1.532274
O     0.332630     0.224504     0.546841
O     2.483205     0.591239    -0.438550
H     2.538585     1.437181     0.027327
9
IRC Reverse Point 1
C    -0.996352    -0.081259     0.660698
F    -1.721221     0.519610    -0.284915
F    -1.451161     0.299456     1.837581
F    -1.183544    -1.381796     0.538183
S     1.029432     0.372786    -0.963299
O     1.012101    -0.942508    -1.520039
O     0.309907     0.255154     0.578358
O     2.486291     0.537561    -0.330712
H     2.681481     1.463845    -0.136636
9
IRC Reverse Point 0
C    -1.007739    -0.100212     0.656254
F    -1.709565     0.480806    -0.318319
F    -1.523972     0.268324     1.809645
F    -1.149382    -1.403856     0.523268
S     1.036067     0.414447    -0.881841
O     0.909470    -0.874363    -1.489163
O     0.298706     0.273005     0.638764
O     2.507325     0.534329    -0.251794
H     2.806024     1.450370    -0.307594
9
IRC Forward Point 0
C    -1.025311    -0.094715     0.635357
F    -1.727679     0.480448    -0.330350
F    -1.513701     0.272287     1.795690
F    -1.131844    -1.395810     0.513066
S     1.174573     0.323648    -0.749093
O     0.795290    -0.771016    -1.566181
O     0.283848     0.318059     0.606975
O     2.492158     0.547979    -0.289174
H     0.683300     1.465347    -1.287133
9
IRC Forward Point 1
C    -1.018289    -0.094707     0.634642
F    -1.700362     0.488745    -0.341535
F    -1.523445     0.273001     1.786961
F    -1.130671    -1.394417     0.506061
S     1.167873     0.322611    -0.743371
O     0.783012    -0.774826    -1.554107
O     0.294486     0.308177     0.624142
O     2.491652     0.556210    -0.303666
H     0.666380     1.461432    -1.279970
9
IRC Forward Point 2
C    -1.018735    -0.094839     0.634746
F    -1.702306     0.487162    -0.341182
F    -1.523344     0.273061     1.787247
F    -1.129746    -1.394790     0.507152
S     1.168111     0.322899    -0.743682
O     0.782491    -0.773922    -1.554895
O     0.293617     0.309430     0.623093
O     2.491832     0.554710    -0.302827
H     0.668714     1.462516    -1.280495
9
IRC Forward Point 3
C    -1.018735    -0.094839     0.634746
F    -1.702306     0.487162    -0.341182
F    -1.523344     0.273061     1.787247
F    -1.129746    -1.394790     0.507152
S     1.168111     0.322899    -0.743682
O     0.782491    -0.773922    -1.554895
O     0.293617     0.309430     0.623093
O     2.491832     0.554710    -0.302827
H     0.668714     1.462516    -1.280495
9
IRC Forward Point 4
C    -1.018735    -0.094839     0.634746
F    -1.702306     0.487162    -0.341182
F    -1.523344     0.273061     1.787247
F    -1.129746    -1.394790     0.507152
S     1.168111     0.322899    -0.743682
O     0.782491    -0.773922    -1.554895
O     0.293617     0.309430     0.623093
O     2.491832     0.554710    -0.302827
H     0.668714     1.462516    -1.280495
