30
energy = -2625.7183341299997
C -0.00066000 0.00802000 -0.00646500
C -0.69262600 0.76532400 1.16747100
C -2.27009600 0.73886400 1.18678800
C -2.97204900 -0.66292900 1.24274800
C -4.43891700 -0.55958900 1.78877700
F -4.42208100 -0.46354800 3.10674300
F -5.05115400 0.50344100 1.27513100
S -5.46040600 -2.06586000 1.32995800
O -5.84464700 -1.94446000 -0.03385400
O -4.79510500 -3.19366700 1.86917600
O -6.71537500 -1.77416200 2.23586200
F -3.01575600 -1.17144800 0.01447200
F -2.28967000 -1.47482400 2.04003200
F -2.61597300 1.41463100 2.28620800
F -2.71375800 1.39470200 0.12117800
F -0.36992900 2.05645500 1.07949200
F -0.24285000 0.28419900 2.32124700
C 1.57682600 0.00477800 -0.00809700
C 2.29679000 1.39391800 -0.00668600
C 3.78845000 1.31722300 -0.48096500
F 4.42298000 0.35196300 0.15851000
F 3.85888200 1.10069900 -1.77807500
F 4.37298700 2.46879700 -0.21058200
F 2.29415000 1.87431200 1.23325500
F 1.65944600 2.23845600 -0.81341300
F 1.99735000 -0.68953100 1.04306900
F 1.92369900 -0.64646200 -1.12053200
F -0.35188600 -1.27645000 0.05999000
F -0.42719900 0.51491500 -1.15841000
H -7.40207200 -1.32441400 1.72383500
30
energy = -2625.42684873
C 0.11212500 0.68264500 -0.79894300
C -0.87784000 0.95531300 0.40132400
C -1.03427200 2.46627300 0.75697300
C -1.82688700 2.76684000 2.07560200
C -1.06786300 2.51236700 3.43945600
F 0.16200700 2.05104700 3.22878700
F -0.99425900 3.65406300 4.10844000
S -1.89729200 1.26543400 4.57919400
O -2.07305400 0.03658600 3.85320300
O -1.19949500 1.35686500 5.82466600
O -3.31610600 1.96812000 4.78161800
F -2.15508600 4.05655300 2.02832500
F -2.96554800 2.04483500 2.04719700
F 0.16255100 3.05857500 0.83821700
F -1.73300800 3.03555900 -0.23002000
F -0.48937600 0.27172600 1.48310200
F -2.08473200 0.51950700 0.03260800
C 1.55740000 0.17869800 -0.46223800
C 2.47993600 1.13800400 0.33599500
C 3.95634400 0.65107300 0.45074500
F 4.00481000 -0.59172600 0.90663800
F 4.55450700 0.70738900 -0.72812400
F 4.59466500 1.44674200 1.29576900
F 1.99531100 1.26728400 1.57603700
F 2.49802100 2.33234000 -0.26563900
F 1.44911800 -0.97639200 0.19971900
F 2.14350400 -0.04943400 -1.64691900
F -0.42615000 -0.29479200 -1.53406000
F 0.20553000 1.78424700 -1.55423200
H -3.94596600 1.62048500 4.12660600
30
energy = -2625.4269418400004
C 0.03613700 0.16304100 -0.25234900
C -0.76171800 0.71766000 -1.48232200
C -0.68779100 0.03378300 -2.89973100
C -0.70434000 -1.51424900 -2.90622200
C -0.94271200 -2.18842100 -4.29543500
F -0.77568500 -3.49648000 -4.11981100
F -2.18990700 -1.94927500 -4.69674200
S 0.19741100 -1.66592300 -5.68778400
O -0.25292200 -0.38781100 -6.17067900
O 1.53882400 -1.94202200 -5.27256000
O -0.22143800 -2.77981500 -6.75306400
F 0.46062300 -1.95345100 -2.42249400
F -1.70855000 -1.93585000 -2.12635300
F -1.76158200 0.46601100 -3.57270300
F 0.40860900 0.44821800 -3.53614600
F -0.39131700 1.99139400 -1.66822900
F -2.04531600 0.68335300 -1.10926000
C 1.60573000 0.19685200 -0.32709100
C 2.34519900 1.37154400 0.39439900
C 2.04854800 2.82241600 -0.07452600
F 2.14014000 2.90277000 -1.39448800
F 0.84027800 3.20590000 0.30723600
F 2.94300000 3.63275600 0.47065000
F 3.64924600 1.15627400 0.17806100
F 2.10093700 1.29281400 1.70513800
F 2.05469500 -0.91269900 0.26699700
F 1.98917200 0.18411000 -1.60888300
F -0.35928400 0.89751700 0.79721400
F -0.34934900 -1.09818200 -0.04505600
H -0.86978700 -2.40336800 -7.37330300
30
energy = -2625.42955239
C 0.42590400 0.28635800 -0.27527600
C -0.24833200 0.94451000 -1.52737300
C -1.80329800 0.85730400 -1.48145700
C -2.56696900 1.26532600 -2.78618600
C -2.46819500 0.41893400 -4.09817900
F -3.40077700 0.89980900 -4.91857800
F -1.27288200 0.57733200 -4.66400500
S -2.79885300 -1.42249700 -4.00085400
O -3.88174700 -1.64186800 -3.09182500
O -2.78942100 -1.88723800 -5.36136400
O -1.45614400 -1.90873300 -3.28553300
F -3.85852600 1.30427800 -2.45411800
F -2.15648100 2.49831100 -3.11845100
F -2.16115900 -0.38167200 -1.13002900
F -2.22467600 1.71773700 -0.54824500
F 0.20414000 0.29915700 -2.61048200
F 0.09883900 2.23163900 -1.61308200
C 1.91855700 0.73103200 -0.06528700
C 2.13471100 2.01270400 0.81462300
C 2.36534900 1.71543100 2.32681700
F 1.45277900 0.86875200 2.78342800
F 3.56944700 1.19835000 2.51099000
F 2.27593800 2.85050800 3.00242600
F 1.08207800 2.83032400 0.70473000
F 3.22093700 2.64381700 0.36207600
F 2.56927200 -0.28610500 0.51376400
F 2.46210600 0.94654500 -1.26907700
F -0.28526200 0.55833800 0.82496800
F 0.42543300 -1.03400200 -0.47064800
H -0.79511200 -2.14813500 -3.95850800
30
energy = -2625.7117081500005
C -0.02133700 0.45163800 -0.15978000
C -0.63734700 1.28867500 1.02329600
C -0.50975900 0.68346000 2.45918700
C -1.37021700 1.37308600 3.58426900
C -2.94436100 1.30440600 3.58250900
F -3.32629100 1.71059900 4.78706800
F -3.44930500 2.13537300 2.68035100
S -3.71705800 -0.37666200 3.30084700
O -3.64041200 -0.66515600 1.90977700
O -3.23784500 -1.23607500 4.31798400
O -5.20280200 -0.00051200 3.65663400
F -0.97056800 0.80991600 4.71987400
F -1.05872000 2.66921200 3.60944700
F -0.81267000 -0.61056000 2.43662400
F 0.75345800 0.82687900 2.85272600
F -1.93147600 1.40499200 0.72909000
F -0.08781600 2.49897700 1.01942200
C 1.49378000 0.05073300 -0.14928700
C 2.60102000 1.16337000 -0.11318900
C 2.59681300 2.23230300 -1.25745100
F 2.46084600 1.65761000 -2.43633800
F 1.62293600 3.10278900 -1.08149200
F 3.74764800 2.87681300 -1.22357000
F 3.76067900 0.51287700 -0.18826600
F 2.54272500 1.80603600 1.04906800
F 1.70745100 -0.73547100 0.90437400
F 1.68439100 -0.66446900 -1.25624700
F -0.70267100 -0.68488800 -0.25131400
F -0.23774500 1.16742000 -1.26537700
H -5.69291400 0.23344200 2.85590300
30
energy = -2625.43325675
C -0.00451600 0.01057000 -0.09184900
C -0.61359900 -1.41333800 0.04348500
C -2.17953600 -1.49580100 0.09795600
C -2.97158500 -0.87041700 -1.08641700
C -4.43066100 -1.40038300 -1.26839300
F -4.98902100 -0.66975700 -2.22936500
F -4.40900000 -2.67871400 -1.64155300
S -5.54090100 -1.27096300 0.23664000
O -5.14527700 -2.29238300 1.16946700
O -5.65738800 0.11586100 0.56940600
O -6.90913800 -1.72124100 -0.45379300
F -3.04398500 0.44893500 -0.90963400
F -2.33644700 -1.13802400 -2.23509500
F -2.46539300 -2.80246600 0.15596400
F -2.58867300 -0.90026600 1.22223800
F -0.19688800 -1.94980100 1.19506500
F -0.17699000 -2.15990800 -0.97560800
C 1.55172300 0.01495900 -0.20001800
C 2.23240000 1.40396800 0.02308900
C 1.72840200 2.57456700 -0.86407700
F 1.69375000 2.20654800 -2.13687600
F 0.51444200 2.94698500 -0.48279600
F 2.55263800 3.60155900 -0.73159800
F 3.53291900 1.22892700 -0.23769400
F 2.08330000 1.75495600 1.30300800
F 2.06545300 -0.80486000 0.72447300
F 1.88684500 -0.42941500 -1.41418700
F -0.47809300 0.56655300 -1.21759600
F -0.38335600 0.73945800 0.96197000
H -7.05731300 -2.66856300 -0.28851800
30
energy = -2625.4294048100005
C -0.02087500 -0.19515500 -0.12014100
C -0.36233500 -1.71944500 -0.05041900
C 0.12748300 -2.66931600 -1.18687300
C -0.28927000 -2.41810600 -2.66958800
C -1.79884100 -2.38773400 -3.05501100
F -2.40357700 -1.38099100 -2.42102300
F -1.84593500 -2.17091400 -4.36730000
S -2.82892700 -3.93482700 -2.78422000
O -4.08399900 -3.66151400 -3.43033300
O -2.01856200 -5.07923700 -3.06640500
O -3.04219000 -3.87969500 -1.20536500
F 0.20880500 -1.23519700 -3.05283200
F 0.29134000 -3.38208700 -3.38584800
F 1.46736200 -2.64390400 -1.16902900
F -0.28753400 -3.89693500 -0.85638600
F -1.69961600 -1.79169400 0.02190800
F 0.14779300 -2.20782000 1.08366900
C 1.48965900 0.18289600 -0.22074600
C 1.78502000 1.68815000 0.12758500
C 2.21847000 1.94234900 1.60179500
F 1.38321900 1.36352600 2.45187700
F 3.43831600 1.46838900 1.80037000
F 2.22175300 3.24821000 1.82309900
F 0.69967800 2.42734500 -0.13209700
F 2.78588800 2.10376200 -0.65155600
F 2.19984200 -0.60008000 0.60339100
F 1.89013900 -0.03202500 -1.47440900
F -0.66887500 0.32980500 -1.16506900
F -0.51775800 0.32812900 1.00884900
H -3.84301700 -3.36752100 -0.99716400
30
energy = -2625.71543313
C 0.13274800 0.18896500 -0.09758600
C -0.47149300 -1.26573300 -0.01963200
C -0.03263200 -2.39180700 -1.02940100
C -0.40007700 -2.17434300 -2.53007100
C 0.16055400 -3.24413200 -3.53973600
F -0.32837300 -2.92078600 -4.72909400
F 1.48690000 -3.16316700 -3.57883200
S -0.27912500 -5.04673000 -3.28531100
O -1.61387800 -5.12397200 -2.82187000
O 0.19324200 -5.70799700 -4.45249300
O 0.67048100 -5.40071200 -2.08207800
F -1.71793200 -2.12829600 -2.65555000
F 0.11915500 -1.01209100 -2.93188300
F 1.28529200 -2.56942200 -0.92518600
F -0.65128700 -3.49337400 -0.61581900
F -1.79071300 -1.11933300 -0.12169500
F -0.18542700 -1.74641300 1.18863600
C 1.69440900 0.29501100 -0.12740900
C 2.20604000 1.73239200 0.24079800
C 3.68325600 1.99094500 -0.20949300
F 4.45792200 0.99380500 0.17969400
F 3.75892700 2.11418400 -1.51896500
F 4.10719400 3.10808200 0.34825300
F 2.14933700 1.88345600 1.55877300
F 1.43574300 2.64876200 -0.34114100
F 2.21072600 -0.56493400 0.74606500
F 2.12080600 -0.01568300 -1.35116200
F -0.37092400 0.81067800 -1.15559400
F -0.29890300 0.80675100 1.00427400
H 1.52308900 -5.72260900 -2.40744000
30
energy = -2625.43162896
C 0.24761000 0.01481900 0.25099200
C -0.44721300 -1.37595000 0.44701800
C -0.37334600 -2.33793200 -0.76977400
C -1.20941100 -3.65473400 -0.66603500
C -2.77053000 -3.62945300 -0.54766600
F -3.17068100 -4.88579800 -0.75990100
F -3.12660000 -3.26059800 0.67690700
S -3.75791300 -2.57213200 -1.74262300
O -5.09818400 -3.09171500 -1.71373400
O -3.43735600 -1.19868900 -1.50301100
O -3.07038000 -3.00016300 -3.11927200
F -0.91458600 -4.35776600 -1.76533900
F -0.77919200 -4.32454200 0.41089700
F -0.72875200 -1.68971600 -1.88188800
F 0.89957200 -2.74200400 -0.88968400
F -1.73184700 -1.10959400 0.70883300
F 0.09597900 -1.98524000 1.50420900
C 1.74787400 -0.01691700 -0.16871900
C 2.47310400 1.33942800 0.09217400
C 3.80957400 1.48223100 -0.69436100
F 4.54623600 0.38901000 -0.54325400
F 3.57110400 1.67354900 -1.98163600
F 4.47856500 2.52240500 -0.22135900
F 2.74905200 1.43137600 1.39487900
F 1.67341700 2.34971500 -0.26778300
F 2.38605200 -0.96814100 0.52025700
F 1.81040000 -0.29575300 -1.47814900
F -0.43786200 0.69859100 -0.66466500
F 0.15684000 0.64016300 1.43363000
H -3.58325100 -3.71719200 -3.53169400
30
energy = -2625.71510205
C -0.01705800 0.05724400 -0.05645100
C -0.64912400 -1.35710700 0.15539000
C -2.22601400 -1.43197900 0.12163500
C -2.94453000 -0.92532200 -1.17829300
C -4.40265700 -1.49920600 -1.35163900
F -4.96619600 -1.68502300 -0.16861000
F -5.12035300 -0.60942700 -2.03278100
S -4.54143000 -3.11036300 -2.31185000
O -3.45183800 -3.95164700 -1.98418800
O -5.90497000 -3.49361200 -2.17972600
O -4.29407700 -2.57866100 -3.77078900
F -3.05418100 0.39828200 -1.10045700
F -2.23156800 -1.23762600 -2.25764300
F -2.51610700 -2.71820500 0.30057300
F -2.69979900 -0.73648100 1.15146600
F -0.30990700 -1.79792200 1.36471900
F -0.16230400 -2.18496400 -0.76305600
C 1.55027400 0.04595100 -0.07409300
C 2.24286500 1.45435500 0.04949100
C 1.80905300 2.55598700 -0.96902000
F 1.84483700 2.08773600 -2.20203800
F 0.58861500 2.97909500 -0.69843900
F 2.64133700 3.57367800 -0.87046000
F 3.54433200 1.23623200 -0.12910500
F 2.04860300 1.92844500 1.27563800
F 2.00301200 -0.67199300 0.95144500
F 1.95460600 -0.51735800 -1.20785600
F -0.42182100 0.52851100 -1.23700700
F -0.44366300 0.86485200 0.91096700
H -5.12472200 -2.29274600 -4.17612100
30
energy = -2625.42630897
C 0.06667700 0.05030300 -0.05649100
C -0.39223000 -1.44234800 0.11023200
C -0.07873900 -2.25273800 1.41806500
C -0.62352100 -1.67286700 2.77658400
C 0.42011400 -0.89030100 3.64657400
F 1.32326500 -0.28320700 2.88137400
F -0.22941400 0.01633500 4.36531100
S 1.38674500 -1.97241600 4.84776800
O 1.72726500 -3.19671700 4.17308400
O 2.34804100 -1.10865100 5.46097100
O 0.26252100 -2.27222000 5.93752100
F -1.66372900 -0.87196300 2.53951400
F -1.06916400 -2.70577000 3.51816000
F -0.68940200 -3.42842000 1.22947700
F 1.23375800 -2.46865900 1.50849800
F 0.14708600 -2.15048600 -0.89063800
F -1.72238600 -1.44538500 -0.02937600
C 1.56282100 0.26681500 -0.43746300
C 2.00835400 1.77920800 -0.44861200
C 2.69992700 2.27863800 0.85197300
F 1.93795000 2.03741100 1.90865200
F 3.87089800 1.68370500 1.00840400
F 2.89110000 3.58561900 0.75046400
F 0.94453300 2.55996700 -0.67441500
F 2.88327800 1.94019100 -1.44362200
F 2.34060200 -0.41148000 0.41793500
F 1.74468100 -0.21638700 -1.66676100
F -0.67054600 0.54849100 -1.05289100
F -0.20858400 0.72529400 1.06995500
H -0.21913900 -3.08113900 5.69153700
30
energy = -2625.4348553799996
C 0.05633800 0.20270400 0.02765400
C -0.66260000 0.75491700 -1.24040800
C -2.20778600 0.51392000 -1.20771200
C -2.97736800 1.45305800 -2.18526700
C -4.42644700 1.00501000 -2.56772300
F -4.95802000 1.99344000 -3.27825600
F -4.35646400 -0.09695600 -3.30870700
S -5.61143100 0.62140000 -1.15905400
O -6.93062400 0.78020900 -1.68763000
O -5.13831400 -0.58480400 -0.53495800
O -5.34183400 1.85536400 -0.18697900
F -3.04314000 2.66919800 -1.63749300
F -2.29058800 1.51916000 -3.33253000
F -2.44907400 -0.75505800 -1.51750400
F -2.65787700 0.76630800 0.04211500
F -0.17507300 0.14773300 -2.32455600
F -0.42901600 2.07102800 -1.31787200
C 1.60730200 0.02784400 -0.09769700
C 2.38712700 1.29140000 -0.55668700
C 3.92543300 1.18896800 -0.33774400
F 4.21306600 1.28439300 0.94994200
F 4.37804800 0.03314700 -0.80371800
F 4.51696100 2.17957600 -0.98690600
F 1.94443100 2.35699100 0.12011700
F 2.16327600 1.47095300 -1.86321100
F 2.04336800 -0.32218000 1.12014400
F 1.85462900 -0.96532800 -0.95368200
F -0.19516100 1.01878700 1.05389900
F -0.44255300 -1.01110700 0.29646300
H -4.61327900 1.63851500 0.42280700
30
energy = -2625.7171106400006
C 0.05530200 -0.01200700 -0.04587900
C -0.45534200 -1.49775800 0.09710800
C -0.00696200 -2.30273300 1.37035900
C -0.99659800 -3.47075600 1.70870200
C -0.42669200 -4.57437200 2.67235300
F -1.44255100 -5.39056000 2.95671000
F 0.52056600 -5.26570800 2.06385600
S 0.24432800 -3.96774600 4.31050100
O 1.53456900 -3.43574900 4.07598000
O -0.80407900 -3.25918800 4.95976100
O 0.44064700 -5.36354500 5.00777800
F -2.09505800 -2.97539400 2.26094200
F -1.31827700 -4.10223000 0.57772400
F 1.19589900 -2.82047200 1.14422200
F 0.04348400 -1.49120400 2.42300400
F -0.07610600 -2.17171000 -0.98262700
F -1.78681400 -1.40480900 0.10454500
C 1.59915400 0.19379300 -0.08825500
C 2.09846700 1.68673600 -0.10823600
C 1.50774100 2.63290300 -1.20211100
F 1.53287400 2.04794100 -2.38461200
F 0.26720600 2.96552000 -0.90173500
F 2.23835200 3.72976900 -1.24995400
F 3.41451000 1.62310700 -0.30200100
F 1.86201000 2.23631400 1.07809900
F 2.13409600 -0.34653400 1.00596500
F 2.08082600 -0.42739300 -1.16028400
F -0.44493600 0.41490300 -1.20705000
F -0.45649600 0.71820200 0.93958100
H -0.36365100 -5.63072400 5.47461900
30
energy = -2625.71723896
C 0.14043200 0.02382000 -0.04524600
C -0.56471100 -1.35850400 0.23764700
C -0.29569200 -2.49348900 -0.79737800
C -1.07832500 -3.84201100 -0.56172300
C -2.64494200 -3.78080500 -0.55818200
F -3.06505500 -3.46560300 0.65336600
F -3.07789800 -2.88490000 -1.43424500
S -3.46374200 -5.40980100 -1.04505100
O -4.72454100 -5.40894700 -0.40128600
O -3.29402200 -5.57222600 -2.44733000
O -2.55334200 -6.44579900 -0.28613700
F -0.68965600 -4.64800500 -1.55938300
F -0.67225700 -4.37019800 0.58653400
F -0.56871500 -2.04962500 -2.01894300
F 0.99554600 -2.81972300 -0.73223400
F -1.87201800 -1.09479800 0.23843000
F -0.21024500 -1.78330000 1.44525800
C 1.69769100 0.00287600 -0.21065900
C 2.33388100 1.42132400 0.00173800
C 3.78139300 1.54121900 -0.58237200
F 4.52132600 0.52677900 -0.17149100
F 3.75535100 1.55530300 -1.89927700
F 4.31869100 2.66709400 -0.15512900
F 2.39744400 1.67250700 1.30411300
F 1.57628700 2.34293800 -0.58902600
F 2.22878300 -0.83146800 0.67824100
F 1.98633600 -0.42103200 -1.44057000
F -0.39918900 0.55017500 -1.13785000
F -0.15778100 0.79490500 1.00183000
H -1.86418400 -6.78580800 -0.87485500
30
energy = -2625.4315112
C 0.02049900 0.01907800 0.05448300
C -0.44776300 0.71905700 -1.26206200
C -0.03157100 0.03499700 -2.60344800
C -0.92934700 0.49097600 -3.79888500
C -0.30856400 0.18287200 -5.20820900
F 0.49995400 -0.87142000 -5.13033500
F -1.29643500 -0.08155400 -6.05429000
S 0.69147400 1.58747800 -5.96303000
O 1.51275800 2.17295000 -4.93753700
O 1.20478800 1.07375200 -7.19550900
O -0.48521700 2.60167600 -6.32489600
F -2.09468300 -0.14673000 -3.71828400
F -1.15795500 1.81704100 -3.70348800
F 1.23849700 0.34852500 -2.86251800
F -0.15417300 -1.29074400 -2.49147900
F 0.00966200 1.97355900 -1.26530500
F -1.78761100 0.74406100 -1.20266500
C 1.53777100 -0.25072400 0.27258200
C 2.53158700 0.95046600 0.32221800
C 2.24573400 2.06788700 1.36662100
F 1.24194400 2.83201100 0.96276000
F 1.94862000 1.54041100 2.54515400
F 3.32934700 2.81852800 1.48915200
F 2.59330700 1.51627900 -0.88622000
F 3.72396900 0.42176100 0.62019600
F 1.63520500 -0.90233600 1.43641900
F 1.95589500 -1.05735700 -0.71281400
F -0.40990300 0.78555000 1.06676200
F -0.59099900 -1.16708700 0.12510500
H -0.61490500 3.22224500 -5.58681600
30
energy = -2625.71441607
C 0.09260700 -0.08711900 -0.13705500
C -0.45612400 0.71779600 1.08941800
C -2.01927500 0.85911600 1.10413200
C -2.67064000 1.46634700 2.40456400
C -2.32153500 2.92239800 2.87232500
F -3.04858900 3.14182600 3.95941000
F -1.03339700 2.99635300 3.19412000
S -2.71838300 4.35139900 1.72374300
O -3.93008500 4.06022700 1.05348600
O -2.50636000 5.51688000 2.51073900
O -1.55767700 4.22922300 0.67260800
F -3.98276400 1.41623100 2.20669300
F -2.36313900 0.67035300 3.42934000
F -2.38996000 1.59813000 0.06395000
F -2.55535500 -0.35392800 0.98917500
F 0.06964300 1.94356800 1.03183300
F -0.05197900 0.12035900 2.20589600
C 1.65310900 -0.33417600 -0.15568000
C 2.58781400 0.91631600 -0.05161400
C 4.04906400 0.63892900 -0.54552900
F 4.51858600 -0.46356200 0.00751600
F 4.08713100 0.52069000 -1.85632900
F 4.80971100 1.65694600 -0.18903100
F 2.65903800 1.29075700 1.22314300
F 2.09929500 1.91742000 -0.78080000
F 1.95685600 -1.16584800 0.83459100
F 1.89662700 -0.94231800 -1.31848700
F -0.44747300 -1.30280300 -0.14562800
F -0.25000200 0.54828100 -1.25320500
H -0.78342500 4.73547200 0.95646600
30
energy = -2625.7093794200005
C 0.08528900 0.13018500 -0.25875200
C -0.73974700 0.66789600 -1.48959400
C -0.65797600 0.00203500 -2.92624600
C -0.68644100 -1.55412600 -2.97357500
C -0.94794000 -2.18062200 -4.39165200
F -0.78415800 -3.49765900 -4.25448400
F -2.19153100 -1.93804900 -4.76524900
S 0.19320200 -1.64400000 -5.77588300
O -0.25843300 -0.38816300 -6.24577500
O 1.52480500 -1.90825000 -5.35179800
O -0.23499500 -2.71373000 -6.84630600
F 0.47436000 -2.01785100 -2.52138500
F -1.67462000 -1.99654500 -2.19614000
F -1.72153600 0.46010800 -3.58575000
F 0.43513200 0.41909800 -3.54989500
F -0.41818100 1.94941000 -1.66711100
F -2.01254000 0.59192200 -1.10850300
C 1.66031800 0.25451600 -0.31971000
C 2.34484800 1.45922400 0.43108500
C 1.98690400 2.91788200 -0.00185600
F 2.08519300 3.04619300 -1.31130200
F 0.76869400 3.24250100 0.38065300
F 2.84165500 3.74079500 0.57517600
F 3.65092800 1.30670600 0.21106900
F 2.11244700 1.34412700 1.73435700
F 2.16152300 -0.83298400 0.25996400
F 2.05430500 0.27472700 -1.59047400
F -0.35378600 0.81319000 0.79899500
F -0.22980400 -1.14734700 -0.08129600
H 0.29289100 -3.51977600 -6.75825100
30
energy = -2625.7097253400007
C 0.27842000 -0.23868100 0.04883600
C -0.57032300 0.48865900 -1.06465500
C -0.27183200 0.09972600 -2.54883300
C -1.29638500 0.58387400 -3.65071000
C -1.45833600 2.13934200 -3.90444400
F -0.40526200 2.80109800 -3.44790700
F -1.56079800 2.33804200 -5.20826900
S -2.97054100 2.93070800 -3.12355300
O -3.04601600 2.49679500 -1.77099200
O -2.91891000 4.29103800 -3.51020500
O -4.11956800 2.25930600 -3.95778000
F -0.84264600 0.04933500 -4.77997600
F -2.49859500 0.04945800 -3.39977700
F 0.92542700 0.55578600 -2.90028700
F -0.27056600 -1.23067500 -2.63257000
F -0.41386200 1.79921000 -0.92032700
F -1.83203300 0.15820000 -0.79724400
C 1.84414000 -0.16755100 0.04571300
C 2.56640000 1.22421800 0.11405100
C 2.24763300 2.14845000 1.33649000
F 1.04835900 2.68074000 1.21881600
F 2.31695700 1.47124000 2.46582800
F 3.13981400 3.12003600 1.36214200
F 2.30729900 1.90850400 -0.99626000
F 3.86848200 0.94873800 0.15692700
F 2.23916900 -0.87495600 1.10249900
F 2.28341600 -0.77424400 -1.05610300
F -0.14219700 0.26670100 1.20922600
F -0.02832400 -1.53257100 0.01740600
H -4.40599900 1.43506400 -3.53873200
30
energy = -2625.7139879700003
C -0.01347300 0.06036400 0.05925000
C -0.46136000 0.74610500 -1.28365600
C -0.04541100 0.03043900 -2.61884800
C -0.93582400 0.48922800 -3.83103200
C -0.31861300 0.15435500 -5.24513900
F 0.44035200 -0.92926900 -5.16112900
F -1.31227600 -0.07748100 -6.08780300
S 0.73458100 1.51028400 -6.01157800
O 1.56486600 2.07142500 -5.00229500
O 1.22716300 0.95240400 -7.21567400
O -0.37912800 2.54741000 -6.40481100
F -2.10594200 -0.12722400 -3.74531700
F -1.14892200 1.81169600 -3.75336700
F 1.22583500 0.31357900 -2.87000900
F -0.18870300 -1.28472400 -2.48714900
F 0.00966000 1.98837100 -1.30041000
F -1.79395800 0.79320300 -1.22963700
C 1.50526300 -0.22247500 0.32247300
C 2.53126900 0.96516500 0.38753900
C 2.25958000 2.10599500 1.42442400
F 1.28271000 2.88944600 1.01231100
F 1.94753900 1.60183000 2.60256400
F 3.35669400 2.82852400 1.54236900
F 2.63977900 1.51807800 -0.81556100
F 3.69612800 0.40768100 0.71277200
F 1.55793200 -0.85979300 1.48975700
F 1.93973700 -1.04452100 -0.63251500
F -0.45973800 0.84180600 1.04346500
F -0.63031000 -1.11480900 0.14298600
H -0.51354600 3.18611600 -5.69031700
30
energy = -2625.7177322100006
C 0.14572100 0.11712000 0.26259600
C -0.51651100 -1.31537600 0.27202600
C -0.06861300 -2.26827800 1.43363000
C -1.03491400 -3.48855600 1.62549000
C -0.46953600 -4.69697100 2.45928300
F -1.45758600 -5.57521300 2.56216200
F 0.54398200 -5.25902900 1.80934100
S 0.09780100 -4.36423700 4.21174100
O -0.80637000 -3.45229500 4.80615000
O 0.40686200 -5.64253300 4.75243700
O 1.43719200 -3.58806900 3.93336600
F -2.14910100 -3.07288000 2.20854600
F -1.33094700 -3.98934300 0.42340900
F 1.15437900 -2.71758600 1.14601000
F -0.03133900 -1.58427300 2.57194700
F -0.26196900 -1.89897800 -0.89276800
F -1.82880400 -1.10637100 0.37445500
C 1.70654800 0.15593200 0.27462200
C 2.36573100 1.53296700 -0.10408200
C 1.90780900 2.78975400 0.70244200
F 0.67953900 3.13179900 0.36504000
F 1.95486400 2.54952400 1.99894000
F 2.71909500 3.78989000 0.41994500
F 2.16071900 1.77347900 -1.39418700
F 3.67244000 1.37856800 0.10498100
F 2.12976600 -0.18804200 1.48842900
F 2.16859600 -0.72574000 -0.61166200
F -0.28465700 0.70682800 -0.85251400
F -0.30297400 0.79752400 1.31308900
H 2.18108000 -4.20287400 3.86189300
30
energy = -2625.7146935400006
C 0.18231400 -0.09920400 0.26666600
C -0.56376600 0.79751600 1.30876300
C -2.13062900 0.69091200 1.19689900
C -2.89424600 1.27227500 2.45671100
C -3.24960000 0.23275100 3.58448000
F -2.30502900 -0.68521000 3.70312900
F -3.35362800 0.89251900 4.73506800
S -4.88050800 -0.67509600 3.35006700
O -5.06496800 -0.94778200 1.97329800
O -4.88967600 -1.67391600 4.36298600
O -5.89443800 0.46115800 3.73946200
F -2.14559100 2.22973800 3.00465200
F -4.02895700 1.82481800 2.04044600
F -2.50701200 1.40331300 0.14224100
F -2.48369800 -0.57649000 1.00745200
F -0.22632100 2.06780800 1.09671700
F -0.16769600 0.43680600 2.52719400
C 1.74688900 0.08460500 0.19260800
C 2.30408700 1.50301400 -0.18444800
C 3.72817700 1.44168000 -0.83618900
F 4.52259900 0.66994300 -0.11620600
F 3.66686200 0.97922900 -2.06758200
F 4.22846500 2.66221900 -0.86766600
F 2.40627200 2.23556600 0.91953100
F 1.48903900 2.10801800 -1.04455700
F 2.26472100 -0.27059800 1.36381900
F 2.15293900 -0.78274300 -0.73811600
F -0.00391900 -1.37519800 0.59624700
F -0.33152700 0.11684100 -0.94108400
H -6.06654100 0.45425900 4.69147100
30
energy = -2625.71181543
C 0.18078100 -0.14304600 -0.24106300
C -0.67083100 0.74951700 -1.19843100
C -2.21426700 0.88875800 -0.88724700
C -3.02840500 -0.43333300 -0.77244300
C -4.56931100 -0.29385600 -0.46944800
F -5.05479600 -1.53008600 -0.52878000
F -4.72703100 0.18171700 0.75596200
S -5.66044000 0.76144200 -1.57380400
O -6.97060800 0.22351400 -1.44351000
O -5.34481900 2.11623800 -1.31524400
O -5.09826100 0.39132300 -2.99616400
F -2.87571200 -1.13428500 -1.89248500
F -2.54662300 -1.13940400 0.25155000
F -2.36421600 1.57959400 0.23673100
F -2.70083600 1.59235000 -1.90716600
F -0.53481000 0.28661600 -2.43600800
F -0.19922100 1.99555100 -1.14815100
C 1.74560600 -0.00860500 -0.36786600
C 2.50643800 1.31550900 0.02558200
C 2.13614900 1.97239600 1.39316200
F 0.94344400 2.53273000 1.33215500
F 2.14691700 1.06918100 2.35509500
F 3.02708200 2.90446000 1.66802100
F 2.36058800 2.22588400 -0.92827100
F 3.79361200 0.97439500 0.08782700
F 2.23311800 -0.97227200 0.41253100
F 2.07606300 -0.26739100 -1.63205800
F -0.16188600 0.09450100 1.02339900
F -0.08267000 -1.41569600 -0.53242600
H -5.62477600 -0.31590300 -3.39490700
30
energy = -2625.70871549
C 0.46038400 -0.26974000 -0.20690600
C -0.50625300 0.35912200 0.87055400
C -0.31521300 -0.08689000 2.37447000
C -1.18517600 -1.31667600 2.86181400
C -2.57874200 -1.01551800 3.52988200
F -3.11052600 -2.20130100 3.82996200
F -2.39212300 -0.33681600 4.64987600
S -3.86977200 -0.11307500 2.52382900
O -3.44007100 1.22917000 2.38539500
O -4.23912100 -0.95274300 1.43777300
O -5.02236700 -0.12103200 3.59409100
F -1.36367700 -2.18247400 1.87219500
F -0.48414600 -1.91679900 3.82466600
F 0.96284100 -0.41844800 2.54659100
F -0.58386400 0.95076500 3.15739300
F -1.73612000 0.02626400 0.47830400
F -0.39208700 1.67877500 0.81023700
C 2.01898300 0.02194300 -0.23007900
C 2.45168100 1.50236000 0.00065600
C 3.95996800 1.78524200 -0.31340200
F 4.73731200 0.94142600 0.33826800
F 4.19734200 1.68652900 -1.60525400
F 4.23954600 3.01477200 0.07721600
F 2.24544400 1.80820600 1.28092700
F 1.72444300 2.30253100 -0.77389400
F 2.63204400 -0.74887700 0.65796000
F 2.42282200 -0.34772300 -1.44773400
F 0.34044800 -1.59514600 -0.14669500
F -0.01865700 0.15286500 -1.37524500
H -5.58044800 -0.90425300 3.48750800
30
energy = -2625.4263725100004
C 0.39991600 0.19136100 0.26511400
C -0.68262300 0.63917300 1.30823700
C -0.75352200 2.14634500 1.68381500
C -2.00331200 2.52078200 2.58318700
C -3.16047500 3.33302300 1.90752800
F -4.01114600 3.63215400 2.89047800
F -2.66610500 4.45438600 1.39456100
S -4.24496000 2.50961600 0.61100700
O -4.58763600 1.20218300 1.10225500
O -5.21056200 3.50249300 0.25288200
O -3.25010800 2.36504800 -0.62224600
F -2.51992300 1.41634100 3.12730500
F -1.55433900 3.31306100 3.56087000
F 0.35388600 2.45291400 2.35868600
F -0.79274000 2.86098600 0.55093200
F -0.53074300 -0.09122700 2.40680600
F -1.86841600 0.32108800 0.72877500
C 1.91768800 0.36075800 0.65854200
C 2.60568100 1.60447300 0.02119000
C 3.99216900 1.93482600 0.64859500
F 3.83887800 2.41300300 1.87273300
F 4.74453700 0.84442900 0.69490100
F 4.59345500 2.84575100 -0.09957900
F 1.82236100 2.67973100 0.17049800
F 2.78202200 1.36229000 -1.27921700
F 2.02872500 0.42404300 1.99239500
F 2.56919800 -0.71901600 0.22523400
F 0.17821700 -1.11432500 0.09237600
F 0.15965700 0.82066500 -0.89400700
H -2.80584500 1.49878700 -0.58729900
30
energy = -2625.43452322
C -0.09041100 0.14715500 0.39087900
C -0.60778300 -1.31566300 0.19328600
C -2.12772400 -1.45292000 0.53540600
C -2.55796600 -2.92505900 0.80741400
C -4.09549400 -3.21181000 0.78305000
F -4.57030100 -2.99487100 -0.43782500
F -4.24396300 -4.49679000 1.09912500
S -5.16725600 -2.27298400 2.00622400
O -6.48442600 -2.80973300 1.85469300
O -4.46266200 -2.22118200 3.25932100
O -5.17036800 -0.82055100 1.34927900
F -2.02203200 -3.68799900 -0.15643600
F -2.07937500 -3.30179500 1.99079200
F -2.38963000 -0.72445400 1.64385800
F -2.83771700 -0.95814600 -0.47892700
F 0.09756300 -2.12567400 0.98574800
F -0.43809000 -1.67528700 -1.08179300
C 1.24214700 0.41233100 -0.37925700
C 2.01116400 1.69715500 0.09341900
C 3.10692700 1.44045400 1.16915900
F 2.62865000 0.71500400 2.16959000
F 4.13330600 0.80675100 0.62439200
F 3.51992600 2.60670700 1.64094200
F 1.13171300 2.58196800 0.58040900
F 2.61839200 2.23059400 -0.96823200
F 2.04270100 -0.65503800 -0.23347400
F 0.94378900 0.56072400 -1.67005700
F -1.01802200 0.99799400 -0.06483700
F 0.09139400 0.34864900 1.69856600
H -4.46808800 -0.27969800 1.75223400
30
energy = -2625.71517599
C 0.20471900 -0.09585200 -0.03917500
C -0.65929200 0.53744400 -1.18414100
C -0.51952200 0.01802700 -2.66417400
C -0.74154900 -1.51150000 -2.90378100
C -1.04711200 -1.92767900 -4.39028200
F -1.06920600 -3.25367400 -4.41089200
F -2.23965200 -1.47230800 -4.75566600
S 0.18722600 -1.37198000 -5.68244300
O -0.01568900 0.01841000 -5.90435000
O 1.43667900 -1.94761800 -5.35006000
O -0.39432400 -2.17241700 -6.90571300
F 0.33912400 -2.17435000 -2.51510300
F -1.79006200 -1.92207100 -2.19053700
F -1.43772000 0.68967800 -3.35815700
F 0.68801600 0.34037500 -3.11468900
F -0.39128800 1.84255200 -1.22605200
F -1.92802400 0.37884100 -0.81668400
C 1.77451800 -0.01052600 -0.10093500
C 2.41074600 1.41809600 -0.19543000
C 3.92697700 1.44262700 0.20301700
F 4.07170500 1.29391200 1.50389000
F 4.58434200 0.48339000 -0.42154800
F 4.43190700 2.60963800 -0.14893400
F 1.77123700 2.26073600 0.61133300
F 2.31446800 1.84851600 -1.44861300
F 2.20268800 -0.58215100 1.02682800
F 2.19607400 -0.73326700 -1.13244900
F -0.19241600 0.48871900 1.08784300
F -0.09645300 -1.39302000 0.02989700
H -1.01216400 -1.62220000 -7.40742400
30
energy = -2625.43069264
C 0.12608700 0.42375300 -0.11492400
C 0.09090500 0.59547600 -1.67718700
C 0.32370500 -0.74061300 -2.45731500
C 0.72571000 -0.49077600 -3.94184300
C 0.54166800 -1.70493800 -4.90686800
F -0.75466000 -1.97722700 -5.04976700
F 1.05073400 -1.34794200 -6.08252200
S 1.39284700 -3.29240700 -4.39234200
O 2.80014100 -3.03647200 -4.35262000
O 0.64633200 -3.85667900 -3.29945200
O 1.09175800 -4.14877400 -5.70652400
F -0.04511900 0.49029900 -4.43359200
F 2.00360100 -0.11956500 -3.98846900
F 1.30404100 -1.44212000 -1.87713600
F -0.80972700 -1.44528100 -2.42531700
F 1.00844900 1.49519600 -2.05968300
F -1.11882500 1.04941300 -2.00687200
C 1.54173700 0.56818600 0.56190900
C 1.90638100 1.95613300 1.18369000
C 1.96157900 3.18047600 0.23249000
F 2.82406700 2.96089000 -0.74756800
F 0.76353500 3.42821000 -0.28318100
F 2.35347200 4.23864700 0.92468700
F 3.13249700 1.81318900 1.70261800
F 1.04600400 2.22859100 2.16839100
F 1.57555600 -0.29308800 1.58356100
F 2.50207500 0.23888200 -0.31011900
F -0.70196600 1.32823100 0.41819300
F -0.34906200 -0.79475700 0.16713000
H 0.30403400 -4.70058700 -5.55909800
30
energy = -2625.4351089300008
C 0.01686300 0.04776600 -0.07226400
C -0.66074400 -1.34508900 0.06243000
C -2.22777100 -1.33720200 0.09753600
C -2.97390600 -0.72839100 -1.13453000
C -4.42547500 -1.28092100 -1.25917600
F -4.40171700 -2.50847500 -1.75970300
F -5.01313700 -1.28956600 -0.06052600
S -5.51769500 -0.26682600 -2.40699200
O -4.71655600 0.17185200 -3.50917400
O -6.73558600 -1.01858000 -2.55342900
O -5.81131500 1.00017800 -1.48199500
F -3.04048200 0.59708800 -0.97665700
F -2.31698100 -1.02303200 -2.25583500
F -2.59121200 -2.62351000 0.21142100
F -2.61433800 -0.67357600 1.18984000
F -0.28506700 -1.88950100 1.22512300
F -0.25170600 -2.12438200 -0.94247600
C 1.56913600 -0.02479900 -0.20328200
C 2.32412600 1.32488800 0.02220100
C 1.86336800 2.52675200 -0.84665000
F 1.77537700 2.16791900 -2.11901300
F 0.68175600 2.96264500 -0.43164100
F 2.74547600 3.50654500 -0.73093700
F 3.60901800 1.08642400 -0.26369200
F 2.21672500 1.67081600 1.30778600
F 2.05060400 -0.88082600 0.70617100
F 1.86489100 -0.47132500 -1.42641100
F -0.44811600 0.63986500 -1.18227500
F -0.31057700 0.78229100 0.99584500
H -6.65812900 0.87511800 -1.01931800
30
energy = -2625.71590602
C 0.02714600 0.14768800 0.06017700
C -0.68519900 -1.25118400 0.16069400
C -2.24340100 -1.29536100 -0.08868700
C -3.12799700 -0.44792700 0.87562100
C -4.66315400 -0.36098300 0.53016300
F -5.22998400 0.26405700 1.55127300
F -4.81431200 0.36431600 -0.56898600
S -5.62467100 -1.94468700 0.23351600
O -6.97820500 -1.61785500 0.48497900
O -5.16073200 -2.48867600 -0.99564600
O -5.13411300 -2.83846000 1.42865500
F -2.99538800 -0.93602600 2.10568500
F -2.68947900 0.81050000 0.85788800
F -2.49251500 -0.95357600 -1.34216300
F -2.57505300 -2.58596900 0.08656400
F -0.44437000 -1.76205200 1.36314200
F -0.16875300 -2.06001500 -0.76530100
C 1.54757500 0.01334100 -0.29527300
C 2.43216700 1.28323300 -0.01186400
C 1.96651800 2.62656700 -0.65909600
F 1.74241800 2.46527800 -1.94915900
F 0.86445400 3.06147100 -0.07758900
F 2.91620400 3.52545100 -0.49504000
F 3.63959900 1.00251100 -0.49822100
F 2.52831500 1.46785600 1.30014600
F 2.06620000 -0.97131600 0.43996700
F 1.66683900 -0.29142400 -1.58203800
F -0.55670800 0.88171200 -0.88474500
F -0.08249900 0.76221500 1.23424800
H -4.37163500 -3.37411400 1.16419000
30
energy = -2625.4351238700006
C 0.05324600 -0.07137500 -0.10696700
C -0.60029500 -1.49451200 -0.16074500
C -0.21480300 -2.45511200 1.00358500
C -1.14906300 -3.71726700 1.13401000
C -2.30012200 -3.54358400 2.16941600
F -1.79671200 -3.64457200 3.39380500
F -2.89542700 -2.36560900 2.02006100
S -3.62092600 -4.87677600 2.02075800
O -2.95030300 -6.12397800 1.76590700
O -4.52385700 -4.66488800 3.10964000
O -4.36909700 -4.40370600 0.69469800
F -1.68513700 -3.99914900 -0.07195500
F -0.40167400 -4.74446200 1.52008000
F 1.02727100 -2.88844400 0.77748200
F -0.23819300 -1.78786000 2.16532300
F -0.26674300 -2.07534500 -1.31553100
F -1.92441000 -1.29296800 -0.13935600
C 1.60739200 -0.04011200 -0.01034800
C 2.20614000 1.36036400 -0.34944200
C 3.66871700 1.54165300 0.15366900
F 3.69069100 1.68022500 1.46918900
F 4.40049900 0.48936200 -0.18911500
F 4.18366700 2.62674600 -0.40290000
F 1.45521900 2.31543700 0.21061700
F 2.20263500 1.51190400 -1.67542200
F 1.95444000 -0.37399900 1.24051200
F 2.12176500 -0.93013200 -0.86465700
F -0.30956100 0.54627600 -1.23944600
F -0.45914200 0.58358400 0.93638100
H -3.94256500 -4.80658800 -0.08176300
30
energy = -2625.7170247100003
C 0.03005700 0.04272500 0.05431000
C -0.51882900 -1.43674400 0.00827700
C -0.08810300 -2.40561500 1.15599300
C -0.97900600 -3.69780000 1.32646700
C -1.15156700 -4.58506800 0.05262200
F -2.02594600 -4.01287400 -0.77186300
F 0.00583800 -4.73783600 -0.56914000
S -1.81349800 -6.29209200 0.47008400
O -0.73232500 -7.08261200 0.92488300
O -3.02448300 -6.10350900 1.19248600
O -2.14828300 -6.76986500 -0.99193600
F -0.37374000 -4.43341700 2.25847700
F -2.17623500 -3.33927800 1.76789900
F 1.16378500 -2.79554100 0.94169100
F -0.15719500 -1.75963800 2.31837100
F -0.15616000 -1.97998000 -1.15115200
F -1.84678400 -1.31502000 0.02931700
C 1.57493500 0.21827400 0.14285700
C 2.10943300 1.69957200 0.15210100
C 1.70084000 2.64210400 -1.02866500
F 1.79956400 2.01230500 -2.18412600
F 0.46706500 3.07794700 -0.86850200
F 2.51453400 3.68005800 -1.03520000
F 3.43698500 1.59468900 0.13516900
F 1.73499500 2.28193500 1.28658000
F 1.99632000 -0.31380700 1.28981100
F 2.13681300 -0.43069300 -0.87273400
F -0.38502000 0.59482500 -1.08791100
F -0.53495100 0.67971300 1.07357200
H -3.04911000 -6.51738600 -1.23849900
30
energy = -2625.7151707600005
C 0.04534500 0.23927900 -0.35585000
C -0.66128700 0.76823500 0.93512900
C -2.20091800 0.45892800 1.10735100
C -3.15221100 0.93918200 -0.02872800
C -4.67650800 0.56410800 0.12081500
F -5.29868700 1.18947400 -0.86733500
F -4.80865200 -0.74583600 -0.03402500
S -5.58549500 0.98132300 1.71039700
O -6.95061900 1.07632700 1.35050200
O -5.09501400 0.09966600 2.71236900
O -5.08004300 2.44189700 1.99200500
F -3.04417700 2.26073000 -0.13666900
F -2.76540000 0.37362700 -1.17109300
F -2.36383000 -0.83953000 1.29861700
F -2.54257000 1.11309300 2.23110200
F -0.49496100 2.08740500 0.99144000
F -0.08380200 0.21111100 1.99936000
C 1.61781300 0.12255400 -0.28028200
C 2.38793500 1.42432700 0.11528900
C 3.92937000 1.35202400 -0.15462300
F 4.44124100 0.25820400 0.37714100
F 4.17837300 1.36521700 -1.44783300
F 4.49762700 2.40621900 0.39915100
F 2.21248200 1.64455000 1.41585200
F 1.90630400 2.45627000 -0.57326200
F 1.93468300 -0.84371200 0.57325100
F 2.00607800 -0.24062100 -1.50360300
F -0.39839800 -0.98972600 -0.61565400
F -0.25741600 1.03946300 -1.37190500
H -4.29404000 2.42761800 2.55782400
30
energy = -2625.71743194
C -0.00589600 0.30014500 0.07144000
C -0.20452900 -1.19633900 -0.37257200
C -1.70117000 -1.65398400 -0.24182100
C -1.90468200 -3.22428700 -0.27920100
C -1.96277300 -3.89672400 1.13471700
F -1.01901600 -3.42806400 1.93296600
F -3.15390800 -3.66522500 1.67887400
S -1.74810200 -5.75875300 1.02426800
O -2.73452500 -6.23975600 0.11869900
O -0.36484200 -6.03292500 0.90943000
O -2.16859600 -6.12719900 2.49581700
F -3.05931400 -3.46717800 -0.88373800
F -0.92225700 -3.78015100 -0.98715200
F -2.21087800 -1.18210800 0.89915500
F -2.37806400 -1.13567200 -1.25758500
F 0.56717000 -1.96385700 0.38955400
F 0.16157600 -1.33273700 -1.64423000
C 1.32010000 0.91490600 -0.50189400
C 1.76542600 2.25800700 0.20470800
C 2.82544200 2.08988000 1.34550200
F 2.44378900 1.18204300 2.22285200
F 3.99059700 1.74021900 0.83828200
F 2.96023500 3.24931600 1.96122000
F 0.69446100 2.86724800 0.71077300
F 2.31089400 3.04914100 -0.71247200
F 2.29901200 0.01465400 -0.38553600
F 1.12828000 1.17617700 -1.78838300
F -1.02959800 1.02861900 -0.36683800
F 0.02119300 0.33746000 1.40027800
H -3.12313200 -6.27355500 2.55420400
30
energy = -2625.4299931800006
C -0.05725600 0.33217000 -0.12240500
C -0.58661600 0.79842700 1.25754900
C -2.14145300 0.67402800 1.47013100
C -3.15325000 1.07953200 0.34490800
C -3.19697700 2.57634100 -0.12089000
F -2.00977700 3.15191300 0.05076900
F -3.52052000 2.60481900 -1.40739500
S -4.44476900 3.65875100 0.78040900
O -4.31626200 3.40582000 2.19001800
O -4.32500500 4.95688800 0.19197200
O -5.81110900 3.03316600 0.25067600
F -2.93171900 0.31381600 -0.72234200
F -4.37473200 0.76190500 0.83073700
F -2.39507800 -0.61909800 1.70577900
F -2.42854800 1.38577200 2.56114200
F -0.21628800 2.06402500 1.45949100
F -0.02952500 0.03328800 2.20475300
C 1.49389600 0.15795900 -0.24454500
C 2.35374400 1.38612100 0.16661700
C 3.81888900 1.32058600 -0.35690100
F 4.34803700 0.13498700 -0.08589000
F 3.85124400 1.52562200 -1.66327100
F 4.53104000 2.26024400 0.24505000
F 2.39433600 1.44336600 1.50175000
F 1.79377300 2.50173300 -0.31381300
F 1.85888700 -0.88918800 0.49706300
F 1.73207500 -0.11412900 -1.53589700
F -0.58511500 -0.86889100 -0.39120100
F -0.46103300 1.21316200 -1.04731100
H -6.06102900 2.27836900 0.81214100
30
energy = -2625.71604665
C 0.13563200 0.51998800 0.40629900
C -1.00818400 -0.57359400 0.30207800
C -0.83749700 -1.77932800 1.29530800
C -1.78068900 -3.01403200 0.97310100
C -1.09209600 -4.13314400 0.12054500
F -0.43414300 -3.60890700 -0.90968500
F -0.24914700 -4.81016200 0.88115500
S -2.30610700 -5.38326600 -0.58010900
O -1.50113500 -6.41249700 -1.14303400
O -3.31463600 -5.60957700 0.38735900
O -2.94768000 -4.54318500 -1.74428900
F -2.14142500 -3.55672800 2.12605500
F -2.86882000 -2.58242600 0.33630800
F 0.42779900 -2.19926900 1.30048100
F -1.14472100 -1.34059600 2.50924900
F -1.06649800 -1.01846900 -0.95381600
F -2.15828300 0.02067600 0.59477400
C 1.28544400 0.34993100 -0.64310600
C 2.59443400 1.17405200 -0.35920200
C 2.43608700 2.71502200 -0.15908400
F 1.73324600 3.24032800 -1.14437500
F 1.83876200 2.97280600 0.98859200
F 3.63516700 3.26292800 -0.14560100
F 3.37984000 0.98815900 -1.41868500
F 3.19605000 0.67791300 0.71664000
F 1.66114800 -0.92752600 -0.68662300
F 0.82183700 0.70465500 -1.83747300
F -0.42300600 1.70701000 0.18876700
F 0.64698400 0.50651000 1.63652100
H -2.45176300 -4.66536700 -2.56596000
30
energy = -2625.7117492200005
C 0.09643000 0.14564200 -0.15563700
C -0.14863900 -1.41155500 -0.05596500
C 0.06977200 -2.12242800 1.34535500
C 1.44113200 -2.89188400 1.53836500
C 1.38572800 -4.39503700 1.09210300
F 0.77276700 -5.10553100 2.02352100
F 0.73991800 -4.51779800 -0.05897300
S 3.09240600 -5.15233100 0.88396800
O 3.90112100 -4.67433800 1.95233500
O 2.87000000 -6.52392500 0.61431000
O 3.55465300 -4.49277800 -0.46486300
F 2.41574700 -2.27508700 0.85205900
F 1.74372000 -2.85296900 2.82409800
F -0.04231200 -1.21544700 2.30980600
F -0.90332200 -3.01597600 1.50933200
F 0.58688300 -2.00503100 -0.99420700
F -1.43184400 -1.56473700 -0.36946200
C 1.53814300 0.66621800 0.12610900
C 1.72359900 2.22992800 0.11854800
C 1.23265100 3.01655200 -1.13940900
F 1.65017800 2.42968700 -2.24504400
F -0.08349500 3.09317300 -1.15035900
F 1.72642900 4.23792700 -1.08847900
F 3.03519400 2.43348500 0.23083600
F 1.11404000 2.73879700 1.18347800
F 1.91715200 0.27254700 1.34248100
F 2.36171800 0.13760000 -0.77556800
F -0.19504900 0.45411500 -1.42101800
F -0.75863700 0.76812700 0.64852500
H 3.98478400 -3.64165600 -0.29828000
30
energy = -2625.7127376200006
C 0.18245600 0.09435700 -0.04148200
C -0.46693700 -1.31361200 0.26846000
C -0.30423500 -2.40793600 -0.83186100
C -0.96513000 -3.81910000 -0.57660800
C -2.54058900 -3.90728000 -0.45837000
F -3.11893700 -2.81200000 -0.94439600
F -2.96795700 -4.94931900 -1.14736600
S -3.12369500 -4.15029400 1.31122400
O -2.95500300 -5.51858600 1.62832500
O -2.59666300 -3.08282300 2.09050900
O -4.66259100 -3.91535700 1.08257800
F -0.61035300 -4.54754300 -1.63174400
F -0.41790000 -4.35713600 0.51041900
F -0.76326500 -1.93683800 -1.98876500
F 0.99859000 -2.66520400 -0.95259400
F -1.76430100 -1.05225200 0.42752900
F 0.03167000 -1.77169000 1.40805700
C 1.70393500 0.13786900 -0.39344500
C 2.39720000 1.54474700 -0.25320000
C 1.74317000 2.73900200 -1.01891400
F 1.53893400 2.42239600 -2.28350400
F 0.59413500 3.07256900 -0.46284600
F 2.55841900 3.77365000 -0.96056000
F 3.62947500 1.39057800 -0.73518800
F 2.47615100 1.87160700 1.03162700
F 2.36603900 -0.67968100 0.42292500
F 1.86283600 -0.26814900 -1.65007500
F -0.48985900 0.65094900 -1.04682700
F -0.01658300 0.81489900 1.06278300
H -4.88809600 -2.98059300 1.18951700
30
energy = -2625.7131783100003
C 0.01984000 -0.07842200 0.13233500
C -0.34460600 -1.61434400 0.11396800
C -0.12869000 -2.36436400 -1.23916600
C -0.86556800 -3.75116000 -1.39353300
C -0.74720100 -4.86348700 -0.29213400
F -1.22872300 -4.40935700 0.85423900
F -1.50424500 -5.87711500 -0.71049800
S 0.93170500 -5.60339600 0.08076100
O 1.84719600 -4.55168600 0.32124400
O 0.67053000 -6.64891300 1.00839200
O 1.28800800 -6.22709200 -1.31622700
F -2.16945300 -3.50426400 -1.50778500
F -0.42983200 -4.26973400 -2.54099200
F -0.61310200 -1.60773600 -2.22587800
F 1.16915500 -2.54620500 -1.43876000
F -1.64114400 -1.67485300 0.42454300
F 0.35578900 -2.22460100 1.06165200
C 1.47092300 0.29111400 -0.32229600
C 1.89597000 1.77744900 0.02073900
C 2.74770500 1.93331700 1.32619100
F 2.15857600 1.34748700 2.35019900
F 3.94694500 1.41353600 1.15754800
F 2.87603100 3.22109800 1.58606100
F 0.81210800 2.54175300 0.13777300
F 2.63606700 2.23919900 -0.98129800
F 2.33683600 -0.54630200 0.24849800
F 1.53217900 0.14063600 -1.64127600
F -0.84857300 0.56899300 -0.63600900
F -0.14745000 0.30728800 1.39735900
H 0.95295100 -7.13232900 -1.38458500
30
energy = -2625.43090946
C 0.08081200 0.19092700 -0.09834300
C -0.20192100 -1.34981500 -0.02874700
C 0.05501000 -2.08786100 1.33758900
C 1.43766300 -2.83492800 1.46555500
C 1.36470400 -4.32435500 1.01228600
F 0.74722200 -5.04303100 1.94040400
F 0.71383600 -4.43070800 -0.14802800
S 3.05259800 -5.11868400 0.77139100
O 3.92902600 -4.62349000 1.78898600
O 2.79686900 -6.51637400 0.54698500
O 3.48878500 -4.45330700 -0.61227000
F 2.37477200 -2.21142200 0.74064800
F 1.79046300 -2.81810000 2.74769600
F -0.04665900 -1.20591100 2.33439600
F -0.90943900 -3.00462400 1.49418300
F 0.49076000 -1.94496800 -1.00763200
F -1.50632400 -1.46917400 -0.29734300
C 1.53363000 0.66121700 0.16849800
C 1.75268700 2.20980700 0.19355800
C 1.26302500 3.01798900 -1.03988300
F 1.63541700 2.42255700 -2.16387500
F -0.05721000 3.13025100 -1.01571500
F 1.79473700 4.22948100 -0.99603400
F 3.07345900 2.39196700 0.29966900
F 1.15007500 2.70567300 1.27747200
F 1.91613300 0.22729400 1.37867400
F 2.32728400 0.12991000 -0.76467300
F -0.22827300 0.54177800 -1.35644300
F -0.74228200 0.81764900 0.74629600
H 3.25458100 -5.04704100 -1.34671500
30
energy = -2625.43286269
C 0.05575100 0.29468900 0.02559300
C -0.57293900 0.81203500 -1.29817400
C -2.13425300 0.72211700 -1.40053100
C -2.92745700 1.39496200 -0.24085300
C -4.46330300 1.56566400 -0.54445500
F -4.84324900 0.71086700 -1.49364800
F -5.14712600 1.32008200 0.56667500
S -5.00219400 3.28824700 -1.08000800
O -6.24950700 3.11258200 -1.77486400
O -4.83247800 4.15690700 0.04364100
O -3.87388200 3.65301500 -2.14873700
F -2.81273800 0.60838500 0.83275900
F -2.39217600 2.58855700 0.03199900
F -2.45524900 1.31936700 -2.55934700
F -2.48503700 -0.56310500 -1.46359400
F -0.09651200 0.07930600 -2.31303500
F -0.21458600 2.08791600 -1.47063000
C 1.59940500 0.03111400 -0.01422400
C 2.47905300 1.21727600 -0.49948700
C 3.99216800 1.03914400 -0.17828000
F 4.21008800 1.18784400 1.11788800
F 4.40007100 -0.16482000 -0.55622500
F 4.68073100 1.95674600 -0.83947400
F 2.06397700 2.34744900 0.08230700
F 2.34959600 1.32401800 -1.82687000
F 1.95448200 -0.27185400 1.24239500
F 1.83066700 -1.02337900 -0.79877900
F -0.19422500 1.18306200 0.99211100
F -0.51390500 -0.87522200 0.34199600
H -4.18832900 3.43320800 -3.04297900
30
energy = -2625.7092859100003
C 0.37725900 0.12494200 0.25993700
C -0.26364800 1.03038100 1.38736600
C -0.32520700 0.47282400 2.86470600
C 1.02413000 0.15106800 3.58000900
C 0.93168600 -0.00412000 5.14355400
F 2.12573500 -0.44043400 5.54786500
F 0.69315000 1.16862100 5.70245100
S -0.32864500 -1.22819400 5.78724300
O -1.59857900 -0.60612900 5.73475300
O -0.03118400 -2.48853100 5.19900100
O 0.11649800 -1.23869000 7.29559000
F 1.53157000 -0.97039200 3.08702300
F 1.87755900 1.15390600 3.36672800
F -0.93645300 1.42692500 3.56738600
F -1.07923000 -0.62049000 2.87129500
F -1.53774200 1.21795800 1.05495400
F 0.34504000 2.21362400 1.40583900
C 1.87568800 0.38725100 -0.14885000
C 2.33437500 1.75111400 -0.80372400
C 1.40658500 2.36895500 -1.89502600
F 1.13309500 1.47960800 -2.82942400
F 0.28142900 2.79732600 -1.35132000
F 2.02606700 3.39402000 -2.44544700
F 3.50797900 1.49308700 -1.38002400
F 2.52513600 2.66529500 0.13827600
F 2.64033700 0.21620300 0.92829500
F 2.15622300 -0.57141700 -1.02968500
F 0.32118200 -1.14709800 0.65147700
F -0.35721800 0.25160600 -0.84087000
H 0.79772900 -1.90852400 7.44868600
30
energy = -2625.7170390200004
C 0.35763800 0.07930000 -0.15840500
C -0.11854800 -1.41581700 -0.14907100
C -1.66970900 -1.66813400 -0.07226700
C -2.61373100 -1.04400000 -1.15566100
C -2.44087300 -1.45635500 -2.65953400
F -3.44033200 -0.86704300 -3.31859500
F -1.29233000 -1.00010400 -3.12812700
S -2.55734600 -3.28550200 -3.05743100
O -1.29110500 -3.86823200 -2.81667000
O -3.77630700 -3.76029800 -2.50029000
O -2.70943000 -3.16051200 -4.61804200
F -3.85217100 -1.36173000 -0.79564600
F -2.48304800 0.28295400 -1.11239100
F -1.83548700 -2.98955900 -0.10945700
F -2.10458500 -1.21849600 1.10129400
F 0.38900100 -2.00413000 0.93567900
F 0.35037600 -2.02281600 -1.23131100
C 1.86909300 0.21840700 0.25238700
C 2.48962100 1.57841900 -0.22052100
C 3.81685400 1.94368300 0.52457900
F 3.57518300 2.28659500 1.77324700
F 4.64475300 0.91472100 0.50687400
F 4.38290200 2.96235100 -0.09369600
F 1.61714600 2.56252000 -0.00890500
F 2.75963300 1.50173400 -1.51877900
F 1.96107200 0.14048200 1.57747700
F 2.56730700 -0.77387700 -0.29299900
F 0.20267000 0.56784000 -1.38787100
F -0.37638500 0.78984500 0.69126900
H -3.63841100 -3.05592700 -4.86738200
30
energy = -2625.4277610599997
C -0.17089300 0.81951100 0.00652900
C -0.30525400 0.84105200 1.57322100
C 0.21267000 -0.41420200 2.36982000
C 1.62295500 -0.22175300 3.00989500
C 2.35258700 -1.53007200 3.45967500
F 2.67115000 -2.23651000 2.37865100
F 3.45669800 -1.15220300 4.09391900
S 1.42156000 -2.70014800 4.60148500
O 0.35310600 -3.27472800 3.82946100
O 2.41554600 -3.47142800 5.28107500
O 0.81479700 -1.67756600 5.66249600
F 2.43989200 0.37171000 2.12921300
F 1.48349800 0.57465800 4.07295200
F -0.64287800 -0.61037900 3.39623700
F 0.19207300 -1.49264800 1.59038300
F -1.62435700 0.91967100 1.78423500
F 0.26140400 1.93962100 2.07840200
C 1.19607200 0.57296000 -0.71426900
C 2.17833300 1.78488800 -0.72602200
C 3.64329200 1.36845400 -1.04224600
F 4.16700700 0.72897500 -0.00794500
F 3.67083000 0.57931800 -2.10766200
F 4.35957100 2.45392900 -1.28645900
F 2.17447400 2.39637900 0.46353300
F 1.77368500 2.64649200 -1.66037200
F 1.79881300 -0.49789900 -0.17937200
F 0.90060100 0.29618700 -1.98736000
F -0.99599200 -0.14254000 -0.41941000
F -0.62651300 2.00813600 -0.41478800
H -0.04611700 -1.34903400 5.34533300
30
energy = -2625.7146515900004
C -0.01771600 0.02007300 -0.03591400
C -0.70592600 -1.39452100 0.03890600
C -0.48787000 -2.36547300 1.26453700
C -0.68777500 -1.74935500 2.68435500
C -0.87713300 -2.78193100 3.85554300
F -0.87915900 -2.07840700 4.98000400
F -2.04682400 -3.39757400 3.73062000
S 0.43552300 -4.10450600 4.02693700
O 0.21232400 -5.06983400 3.00627400
O 1.67083000 -3.44865100 4.24376100
O -0.03204200 -4.70539100 5.40389200
F 0.35807500 -0.98718400 2.97721500
F -1.79109100 -1.00010400 2.68068500
F -1.38569700 -3.33740100 1.09986900
F 0.72818000 -2.89146100 1.19614000
F -0.33744400 -2.08384700 -1.03940600
F -2.01303000 -1.15007700 -0.03486500
C 1.53827800 0.04601300 -0.15396900
C 2.21459800 1.46095700 -0.01208000
C 1.70924300 2.60145400 -0.95222200
F 1.66036300 2.18469400 -2.20302500
F 0.51172600 3.01032400 -0.57859700
F 2.54665700 3.61673700 -0.86963600
F 3.50602900 1.27011200 -0.27528200
F 2.08618200 1.87820800 1.24287600
F 2.05789100 -0.69830900 0.82038000
F 1.88672000 -0.46910900 -1.32783400
F -0.51142300 0.58707000 -1.13691100
F -0.39189800 0.73570500 1.02245700
H -0.62074100 -5.45978000 5.26060300
30
energy = -2625.42944218
C 0.12056400 -0.03294700 -0.17458800
C -0.41738700 -1.48649300 0.05035500
C -0.18288100 -2.24782900 1.40606600
C -0.63583700 -1.52833400 2.72633100
C 0.46991800 -0.68179700 3.45913600
F 1.44896100 -0.31365200 2.62423900
F -0.08785600 0.39900100 3.98057500
S 1.29472000 -1.63842900 4.85292800
O 0.43614200 -1.59665600 5.99560400
O 1.82151200 -2.84764500 4.27761800
O 2.50327400 -0.63507600 5.13989300
F -1.67594600 -0.73534800 2.45828600
F -1.04202500 -2.47404700 3.58238700
F -0.93368300 -3.34986500 1.29463700
F 1.09289700 -2.62047500 1.51457700
F 0.11449000 -2.25800900 -0.90902200
F -1.74105900 -1.42659300 -0.12327000
C 1.63809500 0.06145700 -0.53664800
C 2.21756000 1.48599300 -0.28834000
C 3.58563500 1.72785500 -0.98972400
F 4.41295600 0.72461900 -0.72456700
F 3.42425400 1.82744600 -2.29833000
F 4.11104300 2.85362100 -0.53189500
F 2.39285600 1.64735200 1.02674500
F 1.35117900 2.39964400 -0.73983000
F 2.33805400 -0.80855600 0.19880400
F 1.77952200 -0.24806200 -1.82906900
F -0.56237500 0.47330300 -1.20307200
F -0.13496800 0.71371300 0.91229900
H 3.26906800 -0.87628600 4.59060200
30
energy = -2625.7160182
C -0.00178300 -0.01483300 -0.00864300
C -0.66244300 -1.43905400 0.12052900
C -0.45182800 -2.33560200 1.40225700
C -0.74217400 -1.65963400 2.78476200
C -0.92543400 -2.70537000 3.93938500
F -2.14184500 -3.21937800 3.87837000
F -0.02572100 -3.67242600 3.83084200
S -0.75984000 -1.94005100 5.64728000
O -1.40296300 -0.67142000 5.60664500
O -1.09776400 -2.96880400 6.55883400
O 0.79547500 -1.73894700 5.74255600
F 0.29324900 -0.86342600 3.08788400
F -1.84348300 -0.92982100 2.69759700
F -1.30478500 -3.35214900 1.26209000
F 0.78407100 -2.81685100 1.39743700
F -0.24601400 -2.17427100 -0.90906200
F -1.97112800 -1.23151600 -0.00150900
C 1.55598500 0.04327000 -0.08224400
C 2.19305700 1.48175100 -0.01659700
C 1.69090900 2.54509700 -1.04486800
F 1.68071700 2.04100400 -2.26371400
F 0.47813700 2.95503800 -0.72761200
F 2.50851700 3.57889400 -1.01292000
F 3.49636500 1.30665100 -0.22569300
F 2.01476500 1.97593700 1.20498000
F 2.06342600 -0.61583100 0.96044100
F 1.95634900 -0.54363100 -1.20337300
F -0.47332700 0.48535700 -1.15024100
F -0.41875100 0.74549900 1.00186300
H 1.04905100 -0.87456500 5.38842000
30
energy = -2625.4322306
C 0.04481900 -0.00504400 -0.06917400
C -0.68278000 -1.34220100 0.29076000
C -2.23969400 -1.17635000 0.32900400
C -2.98603000 -2.54355300 0.22700000
C -4.50124800 -2.45861500 0.63349300
F -4.96537900 -1.22642400 0.44628800
F -5.19728400 -3.30678700 -0.12126300
S -4.83099400 -2.95686600 2.41542700
O -4.70696000 -4.38768400 2.49469300
O -4.13410800 -2.04590700 3.27094800
O -6.38336100 -2.58026700 2.46943600
F -2.92799200 -2.96132300 -1.03767200
F -2.37807100 -3.44114000 1.01479300
F -2.56432800 -0.58316000 1.47839800
F -2.63891300 -0.41500800 -0.69608300
F -0.29215100 -1.77034800 1.49257500
F -0.35502900 -2.25428600 -0.63235700
C 1.58871900 -0.03932500 0.15356500
C 2.30386600 1.33743900 -0.12543700
C 2.59499000 2.17708700 1.15343700
F 1.49956300 2.30104100 1.88912500
F 3.54561600 1.60415900 1.87399000
F 3.00386200 3.38218100 0.78484200
F 1.55942200 2.08760700 -0.94599400
F 3.47552800 1.08408500 -0.71248700
F 1.86377200 -0.40321200 1.41313800
F 2.08866900 -0.95533500 -0.67995100
F -0.17344700 0.23274700 -1.36650900
F -0.48048200 0.98130700 0.66787600
H -6.91394600 -3.38116900 2.31572300
30
energy = -2625.43212431
C 0.16751500 0.20667300 0.30234200
C -0.69146300 -1.10285800 0.21055800
C -0.22714900 -2.27514300 1.11398600
C -1.17512700 -3.51895000 1.21728900
C -1.42870500 -4.34984600 -0.09279600
F -0.44800100 -4.17443400 -0.97090100
F -1.49156000 -5.64143200 0.23515400
S -3.04311000 -3.98799800 -0.98923300
O -3.28654000 -2.57819700 -0.97839100
O -2.99694100 -4.77976000 -2.18913400
O -4.07006500 -4.65850800 0.03223000
F -0.56915000 -4.34024500 2.08309700
F -2.34827800 -3.14368900 1.73337000
F 0.96451900 -2.71238700 0.68918500
F -0.10179100 -1.80681800 2.36221200
F -0.69933800 -1.51646900 -1.06068300
F -1.92538700 -0.74977900 0.57986100
C 1.69712200 0.05366900 0.05344400
C 2.38418700 1.41097100 -0.29104700
C 3.93156100 1.37993200 -0.11876200
F 4.25524600 1.37148100 1.16415200
F 4.43302900 0.29988800 -0.70403300
F 4.44985800 2.45849500 -0.68564700
F 1.89927000 2.36926400 0.50707300
F 2.11658900 1.71247700 -1.56316900
F 2.25492500 -0.44460600 1.16579900
F 1.90246400 -0.78787200 -0.96460300
F -0.32682900 1.03331500 -0.62949300
F -0.01611400 0.74443500 1.50948500
H -4.23629400 -5.58080100 -0.22970700
30
energy = -2625.4267960899997
C 0.11581600 1.19251900 -0.33044600
C -0.18267400 1.13730500 -1.86701600
C -0.31167200 -0.32567600 -2.45489500
C 0.47821400 -0.54154500 -3.77836800
C 0.37161800 -2.00963200 -4.35475200
F -0.62691200 -2.67208700 -3.78127200
F 0.16156700 -1.93569600 -5.66373300
S 1.92827100 -3.05159500 -4.14608500
O 1.51074300 -4.41377000 -4.27538800
O 2.95681800 -2.45195800 -4.95154800
O 2.24779300 -2.81333400 -2.60181700
F 0.00056600 0.31042000 -4.68260200
F 1.77797600 -0.26529900 -3.55848700
F 0.14467600 -1.20865500 -1.55115500
F -1.59966800 -0.56735600 -2.68779500
F 0.76052800 1.83691900 -2.50792700
F -1.35062900 1.75690000 -2.04114100
C 1.50436200 0.58927600 0.11822000
C 2.38082800 1.46700200 1.06617900
C 1.81999400 1.59094600 2.51423500
F 0.50797900 1.80353300 2.48421100
F 2.05429300 0.47600200 3.18530700
F 2.40833600 2.60250200 3.12892200
F 2.54679600 2.68218900 0.54311900
F 3.57489800 0.86827700 1.14650600
F 1.29688900 -0.57237000 0.74133700
F 2.24852800 0.35950900 -0.98161000
F 0.05779700 2.48963100 -0.00439400
F -0.86329100 0.54429300 0.30252100
H 2.80132600 -2.01988600 -2.49610500
30
energy = -2625.70762493
C 0.18594500 -0.20639200 0.17584700
C -0.65526500 0.72732300 1.11184000
C -2.21775100 0.65353500 0.84733500
C -2.81555000 1.71442700 -0.17055600
C -3.46044000 3.03073900 0.41054900
F -3.93933400 3.69373500 -0.63537300
F -4.46602000 2.70578200 1.21512300
S -2.40479100 4.28054000 1.31700200
O -1.25976100 4.54795500 0.53053300
O -3.31397100 5.28241100 1.75430000
O -1.94537100 3.43290800 2.56174200
F -1.90718200 2.04836000 -1.07790200
F -3.82777700 1.10788100 -0.79156300
F -2.50222400 -0.55636600 0.37484700
F -2.83972000 0.78949000 2.01776500
F -0.24044300 1.98294000 0.97358000
F -0.44224900 0.34397500 2.36553000
C 1.75189700 -0.03752700 0.23504500
C 2.47015000 1.28444700 -0.23307800
C 2.05559700 1.86896800 -1.62013900
F 2.08867600 0.92588400 -2.54374100
F 0.84323800 2.38243900 -1.56272600
F 2.90609500 2.82116100 -1.94783700
F 3.76449900 0.97331500 -0.30591800
F 2.31674800 2.23096600 0.68353700
F 2.13487900 -0.24201400 1.49474600
F 2.22884700 -1.02176500 -0.52586800
F -0.04026700 -1.46456500 0.54565100
F -0.20900800 -0.05164600 -1.08684600
H -2.57464900 3.52916900 3.29078200
30
energy = -2625.43431637
C -0.02613700 0.04350100 -0.06600400
C -0.70666300 -1.33948100 0.13673200
C -2.27479400 -1.33929100 0.10610600
C -2.96998600 -0.82420300 -1.19352500
C -4.41959900 -1.38303400 -1.34000300
F -4.37013800 -2.61458700 -1.82119600
F -5.02724600 -1.37485400 -0.15540000
S -5.50960800 -0.34549400 -2.48439000
O -6.42837000 -1.25401100 -3.09866300
O -5.90886000 0.82183600 -1.74559100
O -4.45591000 0.08630200 -3.60428700
F -3.03632200 0.51727000 -1.14601000
F -2.26245100 -1.19236300 -2.26241400
F -2.63539200 -2.61867000 0.28094000
F -2.71056500 -0.60899700 1.13333800
F -0.37834100 -1.80008200 1.34798600
F -0.25396600 -2.18255900 -0.79567900
C 1.53056500 -0.03170800 -0.13195300
C 2.27517200 1.33259100 0.03294200
C 1.84590800 2.47209600 -0.93052500
F 1.80662900 2.02858500 -2.17920400
F 0.64689700 2.92778700 -0.59203900
F 2.71919800 3.46202500 -0.84797300
F 3.56994800 1.08098400 -0.18820700
F 2.11775300 1.76180000 1.28751400
F 1.97715000 -0.82392600 0.84937200
F 1.87285400 -0.55685700 -1.31115700
F -0.44752900 0.55524000 -1.23445300
F -0.39783400 0.85056400 0.93170600
H -4.07427700 0.95235600 -3.37625300
30
energy = -2625.7146491599997
C 0.02960600 0.03361700 0.11285900
C -0.53946000 0.64974600 -1.21895500
C -0.09704100 -0.04137300 -2.55904800
C -1.06062800 0.30197800 -3.74845400
C -0.49701800 0.04450900 -5.19412100
F -1.48097400 0.33030600 -6.03581900
F 0.52646500 0.85777100 -5.43177300
S 0.04973800 -1.69316900 -5.62454300
O -0.86839400 -2.60365300 -5.04956300
O 0.36442600 -1.65169200 -7.01059600
O 1.38455600 -1.78428200 -4.79791700
F -2.18263500 -0.38884700 -3.61721000
F -1.34067100 1.60733500 -3.69914200
F 1.13072200 0.38186000 -2.85951100
F -0.08185100 -1.35894500 -2.39860900
F -0.19901900 1.93338700 -1.26297900
F -1.86490800 0.55838700 -1.11400800
C 1.57919600 -0.08937600 0.31502400
C 2.48322400 1.19483400 0.30843200
C 2.14547000 2.32705800 1.33483400
F 1.07602800 2.99724300 0.95619500
F 1.94292400 1.82176400 2.53578900
F 3.16823800 3.15894000 1.38432000
F 2.48352600 1.72797600 -0.90970100
F 3.71216000 0.76378000 0.58816400
F 1.74606700 -0.68555900 1.49303400
F 2.05536000 -0.88964000 -0.63949600
F -0.45126300 0.78332300 1.10556800
F -0.45933500 -1.19597700 0.23996000
H 2.13429500 -1.46680400 -5.32090200
30
energy = -2625.71530568
C 0.09123300 -0.02984400 0.26621400
C -0.62769000 0.91822600 1.28137300
C -2.19728100 0.83973800 1.19615400
C -2.93636300 1.48437300 2.43968500
C -3.30558400 0.46373400 3.57319400
F -4.38988500 -0.19723400 3.21192200
F -2.31477600 -0.39153300 3.78335000
S -3.63333800 1.28013600 5.24135300
O -4.54824300 0.43362500 5.91232400
O -2.37268200 1.66385900 5.77635400
O -4.42275600 2.56935000 4.80301400
F -2.17706800 2.46338300 2.94698200
F -4.06671700 2.02255800 2.00012100
F -2.57297400 1.51052400 0.11403300
F -2.60150200 -0.42323500 1.07431700
F -0.28339400 2.17679200 1.01221900
F -0.22086900 0.60670400 2.50746000
C 1.66341500 0.08351200 0.19858300
C 2.28183700 1.47115000 -0.18639500
C 3.73275400 1.35014600 -0.76708100
F 4.46758400 0.57221000 0.00683500
F 3.71332600 0.85900500 -1.98872100
F 4.27195000 2.55370500 -0.80330700
F 2.35156800 2.22991300 0.90244700
F 1.52637500 2.07357400 -1.10129300
F 2.15975200 -0.28541500 1.37424600
F 2.03400900 -0.80723200 -0.72462900
F -0.15084900 -1.28968200 0.62182300
F -0.40640800 0.18149500 -0.94929500
H -3.82214200 3.32484100 4.72809600
30
energy = -2625.7196973
C 0.02981100 0.07790600 -0.03516900
C -0.69147300 -1.29473100 0.15823600
C -2.26862100 -1.25946800 0.14880400
C -2.98657700 -0.72880600 -1.14410800
C -4.44890800 -1.28127400 -1.26386800
F -4.42507200 -2.52799800 -1.72272400
F -5.04946500 -1.25367100 -0.08471000
S -5.47578000 -0.26704700 -2.46518800
O -5.94029200 0.88555100 -1.78903400
O -4.75782300 -0.23700800 -3.69348600
O -6.70373400 -1.24207700 -2.60282600
F -3.05523200 0.59794100 -1.09250600
F -2.30562600 -1.10169800 -2.22091700
F -2.64340600 -2.52952100 0.33026400
F -2.67381200 -0.53611600 1.18560400
F -0.36337100 -1.78296500 1.35235600
F -0.27276300 -2.13604200 -0.78404100
C 1.58966900 -0.06159000 -0.17860100
C 2.32840900 1.29527600 0.09013900
C 3.79174000 1.32156700 -0.46494700
F 4.44497100 0.24214400 -0.07363500
F 3.79238800 1.37704800 -1.78094400
F 4.40473600 2.38999900 0.00648200
F 2.38508900 1.50077200 1.40124400
F 1.65443400 2.29029400 -0.48331600
F 2.04548100 -0.96525400 0.68349500
F 1.86329900 -0.46826400 -1.41620400
F -0.43190700 0.65037400 -1.14422000
F -0.24844800 0.85387700 1.00978100
H -6.55386600 -1.88740200 -3.30784200
30
energy = -2625.7131020399997
C 0.02170300 0.50613400 -0.47386900
C -0.78460100 0.84802100 0.85310500
C -1.01066900 2.37622400 1.08844200
C -1.68805200 2.77158200 2.45813100
C -0.93794200 2.38985900 3.78103400
F -1.27738600 1.15990600 4.15426900
F 0.37313000 2.46116400 3.62677400
S -1.42147100 3.53474300 5.19126200
O -0.65869700 4.72133000 5.08511200
O -2.84169300 3.50028500 5.27504800
O -0.80951600 2.70511100 6.38099900
F -1.79343100 4.10083500 2.42091500
F -2.90263100 2.23986600 2.49557500
F 0.15365400 3.01200300 0.98988800
F -1.83459000 2.82691600 0.14635100
F -0.14124000 0.33571300 1.90425500
F -1.97753300 0.27259200 0.77114700
C 1.54533200 0.10978300 -0.34328700
C 2.53496500 1.19419900 0.19080300
C 4.04665700 0.79732900 0.06254400
F 4.27310200 -0.37225300 0.62989700
F 4.41605800 0.74680500 -1.20065200
F 4.76413900 1.71806200 0.67842200
F 2.29045600 1.41135300 1.48042900
F 2.36257400 2.32302200 -0.49129100
F 1.63120500 -0.97489800 0.42088800
F 1.92734900 -0.20764600 -1.58199300
F -0.55488400 -0.56771900 -1.00745700
F -0.08025300 1.51205500 -1.33844100
H -1.44670500 2.05664400 6.71173900
30
energy = -2625.7161276600004
C 0.06557200 0.00195100 0.18191500
C -0.49081700 -1.45050100 -0.06615900
C -2.04916400 -1.52684800 0.05414300
C -2.66446200 -2.97962700 0.05963800
C -2.25331000 -3.94455600 1.22816600
F -1.15989900 -4.61116400 0.90003600
F -2.04316100 -3.27406900 2.35594600
S -3.59804800 -5.20998600 1.57530000
O -4.62277200 -4.58187300 2.33565500
O -3.82112000 -5.90994700 0.36454100
O -2.77444600 -6.15616900 2.52823100
F -3.98420100 -2.79668900 0.12193400
F -2.36068000 -3.56618200 -1.09039600
F -2.43688500 -0.89252500 1.15767200
F -2.58172900 -0.92061900 -1.00346900
F 0.04929600 -2.25207100 0.85196300
F -0.14315800 -1.87988800 -1.27385300
C 1.54079800 0.19060000 -0.29724500
C 2.18194900 1.60459500 -0.03041800
C 2.20190000 2.14914000 1.43769400
F 1.02337200 2.63884400 1.76761700
F 2.53540600 1.19461300 2.28614100
F 3.09322100 3.11851300 1.51138800
F 1.56183700 2.50286000 -0.78926800
F 3.44769800 1.49719500 -0.43047700
F 2.29620100 -0.73596300 0.28835600
F 1.59279500 0.02549600 -1.61667300
F -0.69950600 0.89252100 -0.44332900
F 0.02112300 0.22746400 1.49407500
H -2.94912800 -5.93402500 3.45342500
30
energy = -2625.4296773700003
C -0.06145900 0.13640600 0.09228100
C -0.73249100 0.82813300 1.30825300
C -2.30251200 0.83849300 1.31598900
C -3.02874700 -0.53219700 1.20305200
C -4.52051900 -0.55575400 1.67933300
F -5.00060800 -1.75147500 1.35545100
F -4.55908100 -0.39822100 2.99886600
S -5.68772400 0.73012600 0.95668500
O -7.00534700 0.18841900 1.08077900
O -5.29230500 2.00405100 1.49386100
O -5.29782200 0.66603700 -0.58729200
F -2.99893000 -0.91950900 -0.07642400
F -2.38504700 -1.42760000 1.95936800
F -2.65564800 1.42431800 2.45914500
F -2.70896400 1.60471800 0.28088600
F -0.38110900 2.12029000 1.31999100
F -0.30745500 0.24215400 2.42847500
C 1.50545200 0.10984300 0.04577300
C 2.27167400 1.48036600 -0.01537800
C 2.86951900 1.93640200 1.34998700
F 1.97263700 1.83448000 2.32267500
F 3.91636800 1.18499000 1.64947500
F 3.25406400 3.19849900 1.25014100
F 1.45969100 2.43649300 -0.47887000
F 3.29722700 1.34512500 -0.85899600
F 1.94251700 -0.58996500 1.10119600
F 1.79848800 -0.56570300 -1.06910300
F -0.42759900 -1.15356500 0.11124300
F -0.51359500 0.70439300 -1.03055100
H -4.56580400 1.28401200 -0.76571900
30
energy = -2625.7139571500006
C 0.00978800 0.06918800 -0.38318000
C -0.73222800 -1.31468800 -0.20360400
C -0.24856800 -2.49846400 -1.10150100
C -1.01514900 -3.86990400 -0.84679700
C -0.23456900 -4.86569800 0.07581400
F 0.79467400 -5.37192700 -0.58107100
F 0.19526400 -4.24975200 1.17368400
S -1.27711400 -6.32488000 0.63889200
O -2.12509600 -6.70388700 -0.42957300
O -0.36400800 -7.20858300 1.27887500
O -2.17398200 -5.63808400 1.73253700
F -2.20450800 -3.63055300 -0.29718800
F -1.18850800 -4.45700600 -2.02066200
F -0.42801700 -2.14755600 -2.36835600
F 1.05390400 -2.70387700 -0.89390600
F -2.00428800 -1.05814200 -0.50211100
F -0.64890600 -1.67639200 1.07443200
C 1.56248500 0.08961200 -0.16262000
C 2.15637900 1.52892200 0.11897200
C 2.32192000 1.90396000 1.63183500
F 1.20784400 1.69718400 2.30647500
F 3.29207900 1.19352400 2.17252000
F 2.63740500 3.18279500 1.70909500
F 1.39259800 2.44776200 -0.46748500
F 3.37092900 1.58133500 -0.41819400
F 1.87816000 -0.71336600 0.85552900
F 2.13814000 -0.36497800 -1.26919100
F -0.24457800 0.52471400 -1.60423200
F -0.56485100 0.87620200 0.50982900
H -1.75083900 -5.68897500 2.60105300
30
energy = -2625.7161126399997
C 0.76602400 0.51540200 0.28569900
C -0.37831500 1.33768800 -0.42494600
C -0.10904200 2.86009500 -0.71853100
C -1.43123100 3.68299500 -0.85296600
C -1.26266600 5.17069600 -1.33852900
F -2.48995900 5.67218700 -1.39807200
F -0.55835500 5.84897600 -0.44011600
S -0.46848800 5.47101200 -3.01536600
O 0.94047400 5.54582500 -2.83559400
O -1.10893200 4.61413400 -3.94257100
O -1.01186100 6.92853500 -3.25986300
F -2.24677300 3.05267900 -1.68980900
F -2.01099000 3.77541700 0.34258500
F 0.62272200 3.39573100 0.25422600
F 0.54678200 2.95092600 -1.87257700
F -1.42977000 1.23948600 0.39009500
F -0.66833200 0.73745300 -1.57339500
C 2.13402900 0.43763300 -0.46566700
C 3.25734700 -0.28037300 0.36422100
C 4.48300800 -0.71496700 -0.50869500
F 5.45686800 -1.09737200 0.29480600
F 4.16143600 -1.72147500 -1.29564100
F 4.90429400 0.29687600 -1.24491700
F 2.77356700 -1.37169200 0.95129800
F 3.69659200 0.55815200 1.29694100
F 1.95097600 -0.21116600 -1.61365500
F 2.55300300 1.67436600 -0.72508800
F 0.96950100 1.02193400 1.49942200
F 0.28044600 -0.71825000 0.40710800
H -0.34644900 7.58083900 -3.00000400
30
energy = -2625.4303294100005
C 0.31621400 0.59541100 0.22040500
C 0.33638500 1.89241200 1.08862100
C 0.52943300 3.25375100 0.33359000
C -0.50987700 3.58400800 -0.77673100
C -0.20591500 4.93115600 -1.50783900
F 0.12600000 5.88011400 -0.63871500
F 0.79169600 4.73647200 -2.36484000
S -1.66190800 5.61969100 -2.48580700
O -2.65470800 6.04490500 -1.54787200
O -1.09904200 6.47498200 -3.49634700
O -2.19437700 4.28644600 -3.18750100
F -0.46769300 2.61640300 -1.70119700
F -1.72490400 3.63153100 -0.22980500
F 0.45213200 4.19519000 1.27979800
F 1.74936400 3.27702500 -0.21394500
F 1.35679600 1.82542300 1.95585000
F -0.81033300 1.95302600 1.76771700
C 0.59960300 -0.72496500 1.03618500
C 2.04278900 -1.32234200 0.98092900
C 3.21244800 -0.46116000 1.52430200
F 3.36657300 0.63489300 0.79273500
F 2.98565000 -0.12332800 2.78414600
F 4.32636500 -1.17407100 1.46136000
F 2.31878200 -1.64957100 -0.28510300
F 2.00536300 -2.43652800 1.72286100
F 0.26283300 -0.53497900 2.31816300
F -0.18700000 -1.67702600 0.52416700
F -0.91024300 0.48814000 -0.29684500
F 1.20147800 0.70144500 -0.77917900
H -1.83073300 4.22372000 -4.08795200
30
energy = -2625.43224577
C 0.01016300 0.00362600 -0.12994800
C -0.60075900 -1.41763700 0.03144700
C -2.16800500 -1.49579000 0.06910200
C -2.94454200 -0.86560800 -1.12158900
C -4.42022400 -1.35451500 -1.30819500
F -4.95209100 -0.59758700 -2.26158000
F -4.41013100 -2.62623900 -1.69577000
S -5.56287300 -1.26405900 0.18286700
O -6.89475600 -1.21793600 -0.33572200
O -5.10280700 -2.25111700 1.12198900
O -5.22614200 0.19047100 0.74099700
F -2.96581700 0.46101800 -0.95359900
F -2.30768100 -1.16372300 -2.25927600
F -2.46671500 -2.79151700 0.14742500
F -2.57589300 -0.87652100 1.19784400
F -0.20193500 -1.93125700 1.19955400
F -0.15822700 -2.18577800 -0.96618100
C 1.56955500 0.02174300 -0.14839700
C 2.22127300 1.43378600 0.01461700
C 1.74200500 2.53922200 -0.96539100
F 1.74202200 2.08396200 -2.20981400
F 0.51697400 2.93258900 -0.64278300
F 2.56005800 3.57543600 -0.88137100
F 3.53361000 1.26240100 -0.17550000
F 2.00785200 1.86056600 1.26239800
F 2.03842100 -0.72196000 0.85968100
F 1.97585000 -0.50336500 -1.30688400
F -0.40243500 0.50553000 -1.30312600
F -0.43556400 0.77522100 0.86840200
H -4.48449100 0.13616500 1.37069600
30
energy = -2625.7123139200003
C -0.03558600 0.49078600 -0.17835000
C -0.64365900 1.30655200 1.02395500
C -0.51730900 0.66943900 2.44612100
C -1.36033500 1.34783900 3.59127500
C -2.93430500 1.30862600 3.58163300
F -3.31571600 1.68360100 4.80483900
F -3.41761900 2.17405800 2.71002200
S -3.73164000 -0.35631400 3.27361900
O -3.70714400 -0.60052600 1.87985100
O -3.21966300 -1.25364500 4.25091900
O -5.20999000 0.03126000 3.64410400
F -0.97092700 0.74816200 4.71241200
F -1.02262200 2.63590300 3.65019500
F -0.84320900 -0.61843100 2.39630800
F 0.74962600 0.78248300 2.83721900
F -1.93700800 1.43696700 0.73571100
F -0.08451400 2.51258700 1.04556500
C 1.47675200 0.07876900 -0.17972800
C 2.59289400 1.18138500 -0.11861500
C 2.59281200 2.28026300 -1.23405800
F 2.44778800 1.73811500 -2.42714100
F 1.62649600 3.15308400 -1.03090500
F 3.74890600 2.91472400 -1.18773900
F 3.74720700 0.52408400 -0.21494500
F 2.54398000 1.79377300 1.06042800
F 1.68599100 -0.73414800 0.85472500
F 1.66056100 -0.61131300 -1.30360600
F -0.72471900 -0.63880400 -0.29313600
F -0.24865200 1.23202700 -1.26737300
H -5.37070300 -0.09022400 4.59050300
30
energy = -2625.7169164500006
C -0.14677700 0.36827600 -0.40107600
C -0.88331400 -0.92727100 0.11679800
C -0.13509100 -2.28340300 -0.12448000
C -1.05475800 -3.53401000 0.06066100
C -0.31587800 -4.92207900 0.01529100
F -1.26535900 -5.84147500 0.20300300
F 0.22593900 -5.09353800 -1.17788400
S 1.00197000 -5.26069600 1.31242800
O 2.24734200 -4.82077300 0.80610900
O 0.46248100 -4.86701000 2.56824500
O 1.01371400 -6.83056000 1.21707200
F -1.70538000 -3.43462800 1.21368900
F -1.93708100 -3.57399800 -0.93644800
F 0.36184200 -2.30695000 -1.35748100
F 0.85967400 -2.36485100 0.75762300
F -2.05009200 -0.95600600 -0.52795100
F -1.11484200 -0.79143800 1.41620400
C 1.31179100 0.58321900 0.11222400
C 1.91654800 2.02084800 -0.09387500
C 1.89974100 2.60276100 -1.54299200
F 2.39783100 1.73077300 -2.39848500
F 0.66825000 2.91265300 -1.90128300
F 2.63525300 3.69681000 -1.56629200
F 3.18972500 1.93663600 0.28751000
F 1.28378900 2.87767300 0.70030400
F 1.34279900 0.35905800 1.42511100
F 2.10431900 -0.29337300 -0.49846800
F -0.12967900 0.33579900 -1.73090200
F -0.89777300 1.39405300 -0.00151500
H 0.33076400 -7.21841200 1.78189100
30
energy = -2625.70976032
C -0.10318400 0.37448900 -0.13841300
C -0.92802600 0.73963200 1.13853400
C -2.47676000 0.43614200 1.09855600
C -3.39351000 1.00675400 -0.03960900
C -3.51407600 2.55953000 -0.23839000
F -2.32771700 3.06478900 -0.54247500
F -4.33802100 2.72991900 -1.26390900
S -4.25268900 3.58161800 1.15629700
O -4.45471200 4.86176100 0.58732900
O -5.28093300 2.81695300 1.77224300
O -3.03014400 3.70580000 2.13224000
F -2.95877100 0.50424100 -1.19549100
F -4.60966500 0.53071800 0.19711200
F -2.63634100 -0.87867800 1.07803300
F -2.95186900 0.89499000 2.27149400
F -0.76699100 2.03001900 1.42136500
F -0.46925700 0.01512500 2.15837600
C 1.47239800 0.32520300 -0.00714700
C 2.23908400 1.66593000 0.34730400
C 2.69998500 1.78506500 1.83769600
F 1.67974400 1.58762400 2.65450500
F 3.64541600 0.90829600 2.10376700
F 3.17497200 2.99876800 2.03478600
F 1.47270100 2.71686800 0.06600900
F 3.33541800 1.72685800 -0.39881400
F 1.80480000 -0.61979900 0.87005200
F 1.88554500 -0.05665600 -1.21223400
F -0.46165100 -0.85570200 -0.50725800
F -0.40223500 1.22441100 -1.11367200
H -3.04393600 2.99620400 2.79071600
30
energy = -2625.43654856
C 0.08425000 -0.13012100 -0.12699100
C -0.43827800 -1.58668100 0.09012300
C -1.97449200 -1.63247900 0.36563800
C -2.61217100 -3.06177500 0.19916900
C -3.21773400 -3.31246500 -1.21398200
F -4.37757900 -2.67533700 -1.30965600
F -2.39457500 -2.89147600 -2.17294500
S -3.52867200 -5.14141800 -1.51617400
O -2.27632000 -5.75832700 -1.86383200
O -4.38345500 -5.60349000 -0.46501600
O -4.40983800 -5.01239600 -2.84323900
F -1.68508300 -3.99545200 0.45316200
F -3.59965100 -3.17765100 1.08290400
F -2.17992000 -1.23677900 1.62082300
F -2.59835800 -0.78514000 -0.46843700
F 0.18779800 -2.12019000 1.14449200
F -0.15558900 -2.29927500 -1.00378000
C 1.62967000 -0.02197500 0.07084100
C 2.22373000 1.26137100 -0.58448100
C 3.64406500 1.62363100 -0.06055100
F 3.57638900 2.09175200 1.17497200
F 4.42214900 0.54914200 -0.08085300
F 4.16866000 2.55258300 -0.84477000
F 1.41295400 2.29678900 -0.33366600
F 2.30524600 1.06837200 -1.90281200
F 1.88933600 -0.00320900 1.38255500
F 2.21504400 -1.08979700 -0.48250700
F -0.22062100 0.24823600 -1.37325700
F -0.51546200 0.68582700 0.74536800
H -3.84859100 -5.18558000 -3.61884800
30
energy = -2625.4333874200006
C -0.14639200 0.62183600 -0.22967900
C -0.78066100 0.89820500 1.16458800
C -2.34566800 0.93146100 1.11689800
C -2.95441200 1.65464400 2.36220500
C -4.45985500 1.31055100 2.56026800
F -5.09869500 1.37464500 1.38955600
F -4.58098500 0.09345100 3.07249200
S -5.34826600 2.47441700 3.74068600
O -6.65080100 1.90052000 3.94943700
O -4.44583200 2.80769000 4.80074600
O -5.50362700 3.76221100 2.81024700
F -2.28933500 1.27738300 3.45494500
F -2.83402500 2.97305400 2.18751000
F -2.75319900 1.57361800 0.01823900
F -2.79682000 -0.32695200 1.08663200
F -0.33887400 2.07709300 1.61983900
F -0.42070000 -0.07368200 2.00695400
C 1.38312100 0.28077700 -0.27360700
C 2.38862800 1.39869800 0.19113900
C 2.95040100 1.20411200 1.62859600
F 1.96220900 1.00588800 2.49129300
F 3.77205200 0.16784200 1.66105200
F 3.61486800 2.29377700 1.97968100
F 1.79775600 2.59742700 0.13050500
F 3.43343700 1.39101300 -0.63960200
F 1.59983300 -0.83308300 0.43769800
F 1.63802700 0.02285700 -1.56016700
F -0.77453600 -0.44919400 -0.73910700
F -0.35566300 1.67264200 -1.02650600
H -6.37877300 3.75200000 2.38501400
30
energy = -2625.7088749800005
C 0.28628700 0.47298200 0.22719300
C -0.46895900 -0.89222800 -0.01015800
C -0.21818200 -2.12011200 0.95164800
C 1.15646200 -2.89338300 0.84292200
C 1.03347600 -4.46083200 0.86539800
F 2.26976100 -4.93090600 0.91012700
F 0.38861200 -4.83546200 1.96528400
S 0.22569600 -5.28011000 -0.64136600
O 0.04516800 -4.28688300 -1.63556100
O 0.95008000 -6.48604100 -0.85229700
O -1.19617500 -5.63830400 -0.07814400
F 1.81800100 -2.54502200 -0.25563900
F 1.89894400 -2.58150800 1.90193700
F -0.38253300 -1.71877200 2.20573800
F -1.19670100 -2.98430600 0.66176800
F -0.31225900 -1.27989200 -1.26666600
F -1.75530300 -0.58393400 0.18283500
C 1.82080300 0.52015500 -0.06148300
C 2.39325000 1.98331600 -0.09438600
C 3.94851700 2.03363600 0.08424900
F 4.28605000 1.74532900 1.32500000
F 4.53070300 1.17762500 -0.73570100
F 4.36669000 3.25224500 -0.19761200
F 1.85055400 2.71566000 0.87517100
F 2.10038700 2.52795900 -1.26966600
F 2.44068700 -0.16802600 0.90037900
F 2.07529400 -0.03895500 -1.23780400
F -0.29803900 1.35147200 -0.58903200
F 0.07472800 0.84220400 1.48709200
H -1.19655900 -6.52368200 0.31134300
30
energy = -2625.7168994500007
C 0.09355400 -0.12863800 -0.07753700
C -0.38814100 -1.63060000 -0.00444400
C -0.04007700 -2.44631500 1.29106200
C -1.01958400 -3.65649400 1.50888900
C -0.42099400 -4.72117400 2.49132900
F 0.45765400 -5.47562300 1.85426000
F 0.17564900 -4.11864000 3.51650400
S -1.74591300 -5.84476300 3.19929400
O -2.44225700 -5.12889500 4.21175700
O -2.37494000 -6.48041500 2.10135600
O -0.80323600 -6.90275600 3.88699800
F -2.16344500 -3.20579100 2.01233500
F -1.24909700 -4.24860100 0.34245800
F 1.19508300 -2.93262400 1.17634300
F -0.10666000 -1.65004000 2.35317600
F 0.10230000 -2.27651100 -1.05565800
F -1.71738300 -1.57115100 -0.11015400
C 1.63065500 0.11413700 0.05853900
C 2.04353600 1.64488100 0.06088500
C 2.30693500 2.24403600 1.48377700
F 1.28402900 2.01340600 2.28432000
F 3.39953000 1.72721800 2.00981200
F 2.47045000 3.54761200 1.36255800
F 1.09324100 2.37538300 -0.51722500
F 3.16704000 1.77516000 -0.63477000
F 2.05546500 -0.44036100 1.19726500
F 2.23557100 -0.48642900 -0.95845700
F -0.29303600 0.29886300 -1.27793400
F -0.54068700 0.56915300 0.85983400
H -0.68237800 -6.68700100 4.82230100
30
energy = -2625.4346500400006
C 0.04944200 -0.01336200 -0.01548600
C -0.58653800 -1.42612700 0.21717000
C -0.36007900 -2.47154900 -0.90473400
C -1.08025300 -3.85084100 -0.70925600
C -2.62991500 -3.81978300 -0.56560000
F -2.95948500 -3.53693100 0.68866600
F -3.16219600 -2.91868200 -1.39200900
S -3.44767700 -5.47199100 -0.94605600
O -2.60036600 -6.51433200 -0.45174700
O -4.82687800 -5.31692800 -0.56732900
O -3.35975500 -5.48092800 -2.53981000
F -0.77359100 -4.57033700 -1.79591700
F -0.57460500 -4.43621900 0.37468100
F -0.74570700 -1.94484300 -2.07092200
F 0.94687500 -2.75670600 -0.95725100
F -1.90733400 -1.20766400 0.31975800
F -0.13225800 -1.92257500 1.36852200
C 1.57513300 0.02122700 -0.30796400
C 2.27091500 1.40605900 -0.10838200
C 1.64272500 2.60366700 -0.87161500
F 1.45135400 2.28720200 -2.14443900
F 0.48142200 2.93607000 -0.32505300
F 2.46245300 3.63999800 -0.79983100
F 3.52625300 1.25980800 -0.54746600
F 2.29292500 1.70024300 1.19344400
F 2.19384000 -0.83661000 0.51243200
F 1.76649200 -0.35621600 -1.57666300
F -0.58473200 0.56399000 -1.04201100
F -0.19322600 0.68392800 1.10173000
H -4.19726000 -5.15336600 -2.91142200
30
energy = -2625.71283182
C 0.29075100 0.03380000 -0.25019800
C -0.37883600 -1.38275500 -0.04564600
C -0.23728600 -2.49779100 -1.15668900
C 1.20861900 -2.96067100 -1.54577900
C 1.23288800 -4.42354400 -2.10295500
F 1.12063300 -5.28972300 -1.11245600
F 0.23041100 -4.59217900 -2.96278400
S 2.82525400 -4.84929000 -3.00251500
O 3.89270800 -4.22797100 -2.30985400
O 2.75194700 -6.24683200 -3.25857500
O 2.62035500 -4.07219900 -4.35350300
F 1.67344600 -2.14587200 -2.48781000
F 1.98851800 -2.90086800 -0.47093700
F -0.89059100 -3.55206000 -0.65955200
F -0.86128600 -2.08943400 -2.25427200
F -1.69154200 -1.14056600 -0.00711800
F -0.01449500 -1.89396900 1.12336900
C 1.81740200 0.20672700 0.08511700
C 2.20160900 1.71709100 0.29689500
C 3.73938800 1.98154700 0.15735000
F 4.41817100 1.11270700 0.88402200
F 4.11940200 1.88924100 -1.10053300
F 3.99827000 3.20042500 0.59052200
F 1.83697500 2.08872100 1.51841800
F 1.57539400 2.47576900 -0.60024100
F 2.12409900 -0.45201100 1.19581800
F 2.53922100 -0.27695200 -0.92278900
F 0.08851500 0.39948100 -1.51435700
F -0.37364800 0.86299100 0.55657300
H 2.19592700 -4.63999600 -5.01195100
30
energy = -2625.43028519
C -0.05578000 0.32870300 -0.12465400
C -0.58688000 0.79248300 1.25558800
C -2.14172300 0.66642500 1.46764300
C -3.15431900 1.07320800 0.34356700
C -3.19641400 2.57041900 -0.12027500
F -2.00763500 3.14371000 0.04846700
F -3.52386200 2.60152600 -1.40574300
S -4.43710500 3.65813600 0.78418200
O -4.32221100 3.39538000 2.19340400
O -4.29775600 4.95840500 0.20458200
O -5.80753300 3.05026100 0.24378000
F -2.93116900 0.30945200 -0.72522500
F -4.37501200 0.75556500 0.82774700
F -2.39401500 -0.62729500 1.70136100
F -2.42922600 1.37633300 2.56001100
F -0.21768800 2.05800000 1.46050100
F -0.02930400 0.02599000 2.20154500
C 1.49590600 0.15783000 -0.24584800
C 2.35305800 1.38735800 0.16695100
C 3.81806000 1.32618400 -0.35756300
F 4.35000500 0.14108200 -0.08980400
F 3.84925400 1.53457100 -1.66344900
F 4.52854400 2.26592300 0.24630200
F 2.39433000 1.44242300 1.50215200
F 1.79054100 2.50261900 -0.31135500
F 1.86289400 -0.88927900 0.49480700
F 1.73551100 -0.11232300 -1.53738800
F -0.58116300 -0.87319100 -0.39456800
F -0.46000700 1.20924900 -1.04965700
H -6.09944200 2.33235600 0.83203300
30
energy = -2625.7141251400003
C -0.06893000 0.29615600 -0.15893500
C -0.69262800 1.04288800 1.07424500
C -2.26153600 0.90225000 1.11351900
C -2.95945800 1.92810900 2.07008200
C -4.54018100 1.77557000 2.11453700
F -4.93422800 0.62730100 1.56667600
F -4.94685600 1.81123000 3.36949600
S -5.42712700 3.14219300 1.18366800
O -5.37094000 4.31815500 1.96857500
O -5.00801800 3.06375000 -0.17386700
O -6.89242000 2.57916300 1.30414800
F -2.48082100 1.73620800 3.29424300
F -2.67566500 3.17047300 1.68732600
F -2.74986700 1.06940100 -0.11273800
F -2.54385700 -0.32397200 1.54710900
F -0.35128100 2.32490200 0.99798900
F -0.20568600 0.53011800 2.20054200
C 1.46695200 -0.03333200 -0.08311800
C 2.50064500 1.12543400 0.13672700
C 2.56151000 2.26439500 -0.93405000
F 2.67115100 1.75897300 -2.14688600
F 1.48664900 3.02421600 -0.87450700
F 3.62036900 3.00999400 -0.68161800
F 3.69820400 0.54378300 0.15352100
F 2.27476300 1.68409100 1.32352900
F 1.65866500 -0.89815800 0.90989000
F 1.76610700 -0.63540900 -1.23328100
F -0.68071400 -0.88061500 -0.29595600
F -0.28096500 1.01959600 -1.25442300
H -7.09779400 1.99750300 0.55891700
30
energy = -2625.7131285000005
C 0.26637000 -0.31822900 -0.32611500
C -0.58496400 0.19106300 -1.54374700
C -2.12793200 0.42948800 -1.30042800
C -2.95894300 -0.79571800 -0.80174400
C -4.48534000 -0.47716900 -0.51991800
F -4.88034800 0.58335900 -1.20898500
F -5.20297700 -1.52643100 -0.88493600
S -4.90434700 -0.11608200 1.27634500
O -3.94228200 0.80222800 1.77986700
O -6.29953200 0.12266700 1.28588800
O -4.67820400 -1.52893500 1.92655100
F -2.88819900 -1.74795900 -1.72158600
F -2.41448900 -1.26660200 0.33152400
F -2.27525600 1.43290500 -0.44596200
F -2.60946500 0.78845800 -2.48989700
F -0.44696700 -0.68078100 -2.53696300
F -0.11865400 1.37413300 -1.94139000
C 1.81882000 -0.03901400 -0.45946000
C 2.29836900 1.29852300 0.20756400
C 3.72083700 1.74549200 -0.27059900
F 4.57127100 0.73884400 -0.18538500
F 3.67875800 2.17490000 -1.51555100
F 4.13746800 2.72738200 0.50503800
F 2.34700600 1.11422100 1.52309700
F 1.45288900 2.28840400 -0.06213200
F 2.45566700 -1.03371700 0.14850600
F 2.15507100 -0.04927800 -1.75001800
F -0.17411700 0.23324900 0.80464300
F 0.11121300 -1.63662700 -0.24994400
H -3.76024900 -1.62391300 2.21869400
30
energy = -2625.71680157
C 0.10929800 -0.10057600 -0.01561100
C -0.50524000 -1.54896700 0.01188500
C -0.22829000 -2.53810500 -1.17129800
C -0.73656200 -2.17952700 -2.61698600
C -2.26738100 -1.89355300 -2.77605900
F -2.98728000 -2.74326400 -2.05199400
F -2.53380800 -0.65446800 -2.39836400
S -2.82572400 -2.07973100 -4.56040300
O -2.06262800 -1.16864800 -5.33024700
O -2.94081400 -3.46725700 -4.84988100
O -4.27201200 -1.47599600 -4.40313400
F -0.06109500 -1.12717600 -3.05838400
F -0.43393600 -3.23577600 -3.37154000
F 1.08910300 -2.71129800 -1.26801900
F -0.78356100 -3.69534900 -0.82192600
F -1.82741000 -1.38866000 0.10352200
F -0.07712900 -2.15629700 1.11400600
C 1.66725300 0.01004700 -0.16213900
C 2.20546600 1.40623600 0.31205500
C 3.63861000 1.72804900 -0.22987000
F 4.44628900 0.70631600 -0.00893800
F 3.60529500 1.98558000 -1.52097200
F 4.10219500 2.78798000 0.40367700
F 2.26011800 1.41971300 1.63885500
F 1.38384900 2.36720000 -0.10543800
F 2.25534300 -0.93359600 0.56641900
F 1.98806900 -0.16132000 -1.44271700
F -0.46484600 0.58001800 -1.00110800
F -0.23761300 0.45144900 1.14864800
H -4.91862900 -2.18316100 -4.26983700
30
energy = -2625.43471575
C 0.05635900 0.75926900 -0.39537500
C -0.54769500 1.18256600 0.97787900
C -2.09844500 1.38452000 0.91503800
C -2.64249300 2.25151800 2.08961000
C -4.18398800 2.17424600 2.34331000
F -4.50845400 0.94558200 2.72836300
F -4.44906300 3.03537700 3.32378300
S -5.31726000 2.66533700 0.92896800
O -6.64469600 2.59695800 1.45723700
O -4.76050100 3.83793900 0.30909600
O -5.13580800 1.41965900 -0.04912300
F -2.05788700 1.82085300 3.21688200
F -2.31177300 3.52248300 1.87434100
F -2.41738300 2.00034100 -0.24535700
F -2.68357200 0.18654500 0.93557400
F 0.03178300 2.32637800 1.35758500
F -0.30099500 0.23187400 1.88198300
C 1.49686400 0.14732500 -0.34497800
C 2.57112300 1.01943100 0.36375400
C 4.03155700 0.55822500 0.08323200
F 4.14205700 -0.74885200 0.27717900
F 4.37358500 0.84629500 -1.16162200
F 4.84689400 1.19015800 0.91261900
F 2.36103800 0.95517600 1.68326400
F 2.45184000 2.28773000 -0.04320600
F 1.43398900 -1.03922200 0.26187900
F 1.86761300 -0.03113300 -1.62054100
F -0.73735600 -0.18263300 -0.92672200
F 0.07660800 1.82096800 -1.20299400
H -4.43200900 1.61005300 -0.69499000
30
energy = -2625.43169367
C 0.04148800 -0.13630700 -0.15315500
C -0.46704500 -1.61333800 -0.04994000
C -0.22996400 -2.35832900 1.30650900
C -1.23699500 -3.53729600 1.54721400
C -2.60860400 -3.13815000 2.20286500
F -2.90038600 -1.85865100 1.99293700
F -3.57073800 -3.89779900 1.68502600
S -2.63277300 -3.42540300 4.06063200
O -2.75507400 -4.83945600 4.29440700
O -1.61158800 -2.60299400 4.63500200
O -4.04291300 -2.74212000 4.37627000
F -1.48061600 -4.13566600 0.37750300
F -0.63795500 -4.41980300 2.35556200
F 0.99000100 -2.89890900 1.26657500
F -0.29938500 -1.50557100 2.33210100
F 0.11771100 -2.32099100 -1.01896400
F -1.78604300 -1.55401300 -0.29147300
C 1.56730900 0.06927900 0.03065600
C 2.04998000 1.55450900 0.08418400
C 1.61699900 2.47763100 -1.08754700
F 1.82137000 1.87730300 -2.25138300
F 0.33404300 2.78966400 -0.97129000
F 2.33203400 3.59080400 -1.04328000
F 3.38696600 1.51072200 0.09442100
F 1.61742700 2.10136600 1.22313700
F 1.93654100 -0.47847500 1.19702500
F 2.20065900 -0.55185200 -0.96754000
F -0.27571800 0.26473500 -1.39327100
F -0.61630300 0.61665400 0.73218000
H -4.72303800 -3.43346800 4.45350400
30
energy = -2625.42659398
C -0.10569300 0.17207800 -0.16268300
C -0.83593200 0.87318200 1.00493800
C -2.39689500 0.75972800 1.01715300
C -3.02086000 -0.66982700 1.13287400
C -4.45663800 -0.61879500 1.73709200
F -4.38506100 -0.47361100 3.05968100
F -5.14226600 0.38564600 1.20427600
S -5.39924900 -2.21305000 1.40565400
O -5.98485400 -2.13018400 0.10363100
O -4.55413600 -3.29210600 1.84436100
O -6.58073700 -2.01654300 2.46216700
F -3.11086300 -1.20768900 -0.08677200
F -2.26038800 -1.43650800 1.91422800
F -2.79490200 1.46842300 2.08593600
F -2.86406800 1.33347400 -0.09213900
F -0.57124400 2.18330700 0.91088700
F -0.35260100 0.41405500 2.16452400
C 1.45615000 0.07553100 -0.06077500
C 2.29816000 1.38409600 0.15338400
C 2.47462200 1.95986300 1.61602900
F 1.64907700 2.97271100 1.81734300
F 2.25271000 1.03744100 2.54096300
F 3.71494900 2.40233900 1.75033300
F 1.77422700 2.34594900 -0.61485500
F 3.52489800 1.08967500 -0.28901100
F 1.76849400 -0.82588400 0.87260600
F 1.83125500 -0.40230600 -1.25571400
F -0.53596600 -1.09700700 -0.22771500
F -0.42370100 0.80145100 -1.29487100
H -6.32407500 -2.39739300 3.31976400
30
energy = -2625.71493354
C 0.08631100 0.04622600 -0.04273900
C -0.68111400 0.49324600 -1.33992100
C -2.20622300 0.78893000 -1.11165600
C -2.94795900 1.35758900 -2.40064100
C -3.12191800 2.91406000 -2.39281900
F -4.04767300 3.25461800 -1.51320100
F -1.97503900 3.51542900 -2.08803300
S -3.67660600 3.60601900 -4.04994900
O -4.58959900 2.69321000 -4.63068900
O -3.97412900 4.97494600 -3.80090200
O -2.33541300 3.51586300 -4.86595600
F -2.27923600 1.01073200 -3.49947300
F -4.15612500 0.81728600 -2.43886800
F -2.79119100 -0.35142600 -0.76682000
F -2.36351400 1.66574200 -0.12010500
F -0.58719400 -0.49928700 -2.22029500
F -0.10349100 1.58674900 -1.83617500
C 1.66146300 -0.06113100 -0.23422400
C 2.45435800 1.19108100 0.27799000
C 3.94621300 1.22203200 -0.20093700
F 4.53492900 0.06549900 0.03891800
F 4.01840100 1.48744700 -1.48993500
F 4.57776600 2.17151600 0.46291000
F 2.45546200 1.17955500 1.60653600
F 1.87569100 2.30956900 -0.15389900
F 2.07926700 -1.11352800 0.45835900
F 1.94981900 -0.25781000 -1.52163900
F -0.15932600 0.88955500 0.95855100
F -0.36762400 -1.15487700 0.29530400
H -1.82430800 4.33187200 -4.77203500
30
energy = -2625.7060166
C 0.13902800 0.15434600 0.14652800
C -0.47013200 0.71983500 -1.18389700
C -2.04708200 0.74809900 -1.28389800
C -2.90908900 1.45711300 -0.18132100
C -2.74508400 2.99800600 0.06098800
F -3.59932500 3.31205300 1.02467600
F -1.50944600 3.26210600 0.47549300
S -3.13528100 4.17325200 -1.35048100
O -4.20438200 3.63534900 -2.10492700
O -3.15974100 5.46094900 -0.74702400
O -1.82947600 4.04244600 -2.21410700
F -4.17726400 1.23738200 -0.50470200
F -2.65964800 0.86434600 0.98779900
F -2.32107800 1.33176200 -2.44913200
F -2.47272900 -0.51022000 -1.32944500
F -0.07494800 -0.03285200 -2.20606100
F -0.02056900 1.95943900 -1.36970800
C 1.64415000 -0.33022200 0.14055700
C 2.83013400 0.70711500 0.22212000
C 2.98201500 1.77209900 -0.91887000
F 2.57870100 1.27268600 -2.07517600
F 2.27448100 2.84926800 -0.63857500
F 4.24716700 2.12061500 -1.02263300
F 3.93135600 -0.04203900 0.20690800
F 2.76420900 1.35108000 1.38156900
F 1.76856800 -1.04332200 1.26256100
F 1.85513600 -1.13511900 -0.89344700
F 0.01977700 1.08126700 1.09557600
F -0.57329200 -0.91825200 0.48543700
H -1.16732900 4.68832200 -1.92990500
30
energy = -2625.70800143
C -0.06391900 0.36617300 -0.20955300
C -0.30571800 1.01849400 -1.62407700
C 0.08351800 0.15609800 -2.89929600
C -0.93570600 0.33447400 -4.07733100
C -0.44753500 -0.30893100 -5.44594700
F 0.51629200 -1.18965100 -5.22634500
F -1.47374400 -0.92628800 -6.01026600
S 0.15626500 0.90993000 -6.74569000
O 0.91939400 0.13939500 -7.65565200
O -0.96045200 1.70386800 -7.12630100
O 1.16859000 1.78719900 -5.92308300
F -2.08603000 -0.22731700 -3.74493100
F -1.12718400 1.65096200 -4.25540500
F 1.27405000 0.55664600 -3.33400100
F 0.13826400 -1.13184000 -2.57458600
F 0.36351700 2.16806600 -1.67777000
F -1.61052400 1.28641700 -1.65709300
C 1.43569900 0.03534100 0.16629800
C 2.19769300 1.02167800 1.12907300
C 2.42300100 2.49939100 0.66837700
F 2.95379000 2.52991400 -0.54010300
F 1.29349000 3.17762300 0.66403300
F 3.25508200 3.07168400 1.51634300
F 3.40835000 0.48697100 1.28824200
F 1.57794200 1.04205200 2.30399400
F 1.44179600 -1.13387900 0.79669300
F 2.14883600 -0.08473800 -0.95518000
F -0.55808600 1.22549200 0.68186400
F -0.77889800 -0.74882100 -0.14526800
H 0.72273900 2.56356900 -5.55506500
30
energy = -2625.4295762100005
C 0.10573700 0.40122300 -0.22312500
C -0.52724800 1.04939000 1.07463600
C -0.75390800 2.58841700 0.98448900
C -1.38671000 3.24561400 2.27861500
C -2.92585300 3.46005700 2.17193600
F -3.18334400 4.45899100 1.33813300
F -3.52906100 2.34821300 1.74967600
S -3.72663200 3.92424000 3.81155200
O -2.82780100 4.77729800 4.52787400
O -5.08378200 4.28022600 3.49378100
O -3.73109100 2.50305100 4.53895800
F -1.14054800 2.49116400 3.35532900
F -0.82430800 4.44045900 2.43981200
F 0.43064900 3.16238600 0.76167500
F -1.56998800 2.85276900 -0.04510900
F 0.27360400 0.78202600 2.11228200
F -1.71743100 0.48086000 1.28800400
C 1.63157300 0.03666600 -0.17431500
C 2.64865500 1.20070800 -0.00297200
C 4.12403600 0.78382100 -0.28971400
F 4.43092800 -0.32301000 0.37231000
F 4.30686500 0.58354100 -1.58434600
F 4.92304200 1.76147100 0.11050400
F 2.59277000 1.65464000 1.25243000
F 2.33854600 2.18795200 -0.85088000
F 1.82123700 -0.85523700 0.80123900
F 1.89094300 -0.54831300 -1.35438100
F -0.51935100 -0.76442300 -0.41904300
F -0.10365800 1.18151900 -1.28830300
H -4.58975900 2.06817500 4.39648100
30
energy = -2625.4303792200003
C 0.24727300 0.26046200 0.12928000
C -0.41542500 -1.10567300 -0.23891200
C -1.98632000 -1.04727000 -0.29618300
C -2.68507600 -0.77137100 -1.67135900
C -2.50897800 -1.72562600 -2.90798900
F -3.51546700 -1.44924000 -3.73239800
F -1.36098100 -1.46372800 -3.52240100
S -2.54070500 -3.57446000 -2.60243100
O -2.78087300 -4.19159100 -3.86953900
O -1.40910000 -3.88120900 -1.76750600
O -3.88148000 -3.70671700 -1.75232900
F -3.99374200 -0.76161000 -1.38281100
F -2.31614700 0.44335300 -2.08520900
F -2.46918400 -2.21327700 0.17901100
F -2.40692600 -0.07892000 0.52553800
F -0.07907100 -1.99228200 0.69603300
F 0.06194800 -1.50200000 -1.42378600
C 1.78315900 0.27370800 -0.16334400
C 2.51848700 1.41591300 0.60238900
C 3.92798300 1.73985100 0.02648800
F 4.61772700 0.61894400 -0.13924900
F 3.82164000 2.36460100 -1.13481700
F 4.57134100 2.52231100 0.87902200
F 2.66636300 1.04687200 1.87660700
F 1.78036700 2.53120500 0.54304900
F 2.31680000 -0.89451900 0.20644800
F 1.95902000 0.44503300 -1.47817600
F -0.31911200 1.23441600 -0.58938300
F 0.05040400 0.48907300 1.43171100
H -3.68108900 -3.60115400 -0.80492200
30
energy = -2625.7067805500005
C -0.02116100 -0.11510400 0.59024800
C -0.97613200 0.23998800 1.77652500
C -2.53182400 0.12246500 1.52127800
C -3.16532100 -1.25389500 1.07874900
C -3.28292000 -1.63085200 -0.44844700
F -2.07726000 -1.81951400 -0.96270100
F -3.94391300 -2.77742200 -0.46953000
S -4.17158800 -0.46345100 -1.64535500
O -3.21899100 0.50308400 -2.06923900
O -4.87379900 -1.31109600 -2.53508500
O -5.24183500 0.22602900 -0.72344300
F -2.46764100 -2.23213300 1.65548300
F -4.40400800 -1.27232600 1.56280600
F -3.07225400 0.41303400 2.70266200
F -2.89981200 1.07674300 0.65765800
F -0.79092700 1.51620100 2.11587500
F -0.67085100 -0.52969000 2.81330300
C 1.45878100 0.42698600 0.76183400
C 1.73212600 1.79351400 0.04234000
C 3.06967800 2.47405800 0.49115000
F 2.97119400 2.92511500 1.72562500
F 4.07148700 1.61768300 0.41941700
F 3.31354900 3.48954000 -0.31448400
F 0.74577400 2.65224300 0.28643200
F 1.80561900 1.57037400 -1.26519600
F 1.73606100 0.54039700 2.06174200
F 2.27831600 -0.47337900 0.23293800
F 0.04456600 -1.43896800 0.51455400
F -0.53322300 0.36354800 -0.54313200
H -4.90637700 1.07008400 -0.38790900
30
energy = -2625.4295142900005
C 0.18747800 -0.16713400 -0.35265200
C -0.69368700 0.17393900 -1.59450600
C -2.23358000 0.33937300 -1.34670000
C -2.96780400 -0.87218000 -0.71095900
C -4.51022200 -0.63287700 -0.48908200
F -4.95684500 0.38151900 -1.23482500
F -5.16819300 -1.73645400 -0.81074600
S -4.93423500 -0.21324900 1.29310000
O -4.90123900 -1.42176800 2.05704600
O -4.20645800 0.98051400 1.63264000
O -6.47105800 0.16549500 1.07809600
F -2.81513600 -1.92360500 -1.51562100
F -2.41865000 -1.14804000 0.48056800
F -2.43660500 1.41466000 -0.58458400
F -2.76228700 0.54543500 -2.56101500
F -0.51850500 -0.78655900 -2.50430600
F -0.29653700 1.34525600 -2.11228500
C 1.72360800 0.13225500 -0.55223500
C 2.29237300 1.45694500 0.05092700
C 1.72511900 2.80031100 -0.47575800
F 1.87355300 2.87690900 -1.78967300
F 0.44042800 2.91757400 -0.16832000
F 2.39133100 3.79337400 0.09261600
F 3.60232400 1.45330500 -0.22815500
F 2.12736200 1.42527800 1.37629000
F 2.39609900 -0.84445900 0.06445600
F 2.01703500 0.09482400 -1.85874700
F -0.26424600 0.49655800 0.71797500
F 0.06447400 -1.47951200 -0.13566000
H -6.55336900 1.12004500 0.90960100
30
energy = -2625.7067197100005
C 0.11929500 0.18566200 -0.34065100
C -0.64646600 -1.17409200 -0.13120600
C -2.21959200 -1.01991500 -0.00107000
C -2.93735500 -0.90402400 1.40839400
C -2.84622900 0.40762800 2.28343700
F -2.73383300 1.47703400 1.51536000
F -3.97084300 0.49739000 2.97958100
S -1.45943800 0.45655400 3.54972100
O -0.28403700 -0.07610900 2.94964700
O -1.53017800 1.74491600 4.13031000
O -2.00121800 -0.56131700 4.61509200
F -4.22848500 -1.04213600 1.11261500
F -2.57276200 -1.94579700 2.16766700
F -2.62280500 -0.00227600 -0.75779300
F -2.72177500 -2.14890000 -0.50296400
F -0.18401500 -1.85658300 0.90827300
F -0.42747700 -1.89582200 -1.22780200
C 1.66528500 0.07468600 -0.13797200
C 2.48050100 1.41227600 -0.30449900
C 2.31590300 2.21943100 -1.63383000
F 2.36814400 1.41484400 -2.67850100
F 1.17185000 2.87541400 -1.63985600
F 3.30027200 3.09368400 -1.71710100
F 3.76184100 1.05905800 -0.21230200
F 2.18097900 2.22392400 0.70386000
F 1.92623000 -0.34524600 1.09415900
F 2.13162200 -0.81702500 -1.01104900
F -0.10084100 0.56461400 -1.59948800
F -0.36427700 1.11773900 0.47529200
H -1.69939100 -1.45875000 4.41335500
30
energy = -2625.7085445499997
C 0.30773300 0.06790200 -0.26431100
C -0.43689600 0.45459800 1.07006600
C 0.02744200 -0.20518600 2.43193600
C -0.75172500 -1.47849100 2.95092000
C -0.72297500 -2.76539400 2.06649400
F -1.59016400 -2.64297800 1.07936000
F 0.49697700 -2.95098900 1.57885200
S -1.12880000 -4.35008800 3.01515000
O -1.74624300 -5.20822100 2.07362600
O 0.02837500 -4.70022000 3.76365300
O -2.25082600 -3.85457500 4.00041800
F -0.17444400 -1.78280700 4.12199700
F -2.01236000 -1.13507600 3.18333700
F 1.32332300 -0.49327700 2.37960400
F -0.16313600 0.70607700 3.38355900
F -1.71707700 0.13900400 0.86845200
F -0.35125300 1.77293500 1.20538700
C 1.84787500 0.35560300 -0.48837900
C 2.35305300 1.77056800 -0.07016900
C 3.80817900 2.09808100 -0.54757900
F 4.64710400 1.15734400 -0.15871600
F 3.85657400 2.21034200 -1.85894300
F 4.17051000 3.24668000 -0.00784900
F 2.33959400 1.84842800 1.26013200
F 1.54440400 2.69618800 -0.57862700
F 2.56531200 -0.56481200 0.14126600
F 2.04116300 0.21195900 -1.80065800
F 0.14853600 -1.23993600 -0.46001600
F -0.34795500 0.72545800 -1.21797200
H -1.86940500 -3.61900900 4.85839700
30
energy = -2625.43312514
C 0.42036400 1.02050100 -0.01923700
C -0.60415200 1.19603400 -1.20002700
C -0.72731800 2.66447600 -1.71992500
C -1.46287100 2.79184200 -3.10478500
C -0.49943300 2.79177400 -4.33142200
F 0.03857200 3.99574600 -4.45377600
F 0.45731700 1.88071900 -4.17654500
S -1.35659800 2.36079100 -5.95739800
O -0.62992000 3.03870100 -6.98661300
O -1.59964000 0.94346800 -5.94878900
O -2.74856900 3.12340600 -5.77907300
F -2.34985300 1.78785000 -3.23423100
F -2.12856300 3.94551500 -3.10964600
F -1.43649400 3.34604000 -0.81907900
F 0.48135700 3.22943400 -1.83511200
F -1.80995500 0.83940800 -0.75137500
F -0.25860000 0.37740700 -2.20147800
C 1.85580900 0.61382000 -0.48197600
C 2.92712800 0.85416500 0.62506900
C 4.26016000 0.09008200 0.37385900
F 4.09692000 -1.20624800 0.58148800
F 4.66870000 0.28678500 -0.87268700
F 5.18098600 0.54723600 1.20825400
F 2.43802000 0.45629100 1.80572800
F 3.20158000 2.15976400 0.67402000
F 1.83635500 -0.68599800 -0.79741200
F 2.20156800 1.32349800 -1.56056100
F 0.48555500 2.16546600 0.67641400
F -0.04025000 0.05542000 0.77677200
H -3.41778200 2.50434200 -5.43807800
30
energy = -2625.7114433100005
C 0.14994300 0.06854700 0.06629400
C -0.68968800 0.70997500 1.21369300
C -2.26050600 0.55359000 1.14834000
C -2.89352900 -0.89877100 1.22724500
C -3.33256400 -1.47355600 -0.16380900
F -4.45500300 -0.88650000 -0.54281400
F -2.39907400 -1.26772500 -1.08834900
S -3.63447900 -3.32413700 -0.09296900
O -2.36968800 -3.97399800 -0.06995600
O -4.65742500 -3.54526400 0.86037400
O -4.26990700 -3.50256600 -1.52279200
F -2.04004100 -1.73677700 1.81033600
F -3.98605600 -0.82108200 1.97373100
F -2.69754100 1.22470300 2.20998900
F -2.70879800 1.16432300 0.05165900
F -0.47894200 2.02640900 1.18611700
F -0.27230200 0.22950200 2.37961300
C 1.71160700 0.26276400 0.13312000
C 2.36359100 1.69110900 0.04405400
C 1.95662100 2.60138900 -1.16047600
F 2.04591600 1.93394800 -2.29528800
F 0.72593500 3.05097000 -1.01687200
F 2.78006200 3.63076400 -1.20083100
F 3.67415000 1.47228800 -0.05891600
F 2.13227100 2.35668900 1.16998100
F 2.14807400 -0.27341900 1.27005100
F 2.19003100 -0.44863300 -0.88743500
F -0.03625000 -1.24954600 0.10067400
F -0.27690500 0.53843800 -1.10507700
H -3.59255700 -3.76420200 -2.16213800
30
energy = -2625.4349396700004
C 0.06350800 -0.01073100 -0.31916400
C -0.69478000 -1.37830900 -0.20381700
C -0.36311800 -2.43782200 -1.29220000
C -1.07751100 -3.80933800 -1.06185900
C -1.06831800 -4.69424900 -2.34796200
F -2.05427200 -4.31297000 -3.14463100
F 0.09931200 -4.57232200 -2.97571300
S -1.27422100 -6.53672600 -1.98655100
O -1.94930900 -7.09849600 -3.11581700
O -0.01264600 -7.01230300 -1.48684600
O -2.32529300 -6.49374600 -0.78466300
F -0.43825200 -4.45998300 -0.07550400
F -2.34430900 -3.61103500 -0.69688500
F -0.73319400 -1.95882100 -2.48479300
F 0.95463500 -2.66286100 -1.28499600
F -1.99379500 -1.07269400 -0.29253000
F -0.44915000 -1.91495300 0.99665400
C 1.62401800 -0.05096600 -0.27510400
C 2.24060700 1.31019900 0.17259600
C 3.75165800 1.44640800 -0.18001000
F 4.40658800 0.35661800 0.19913700
F 3.91031200 1.62146500 -1.48151500
F 4.24865500 2.49394400 0.45914700
F 2.11494600 1.42568500 1.49608700
F 1.58415800 2.30852200 -0.43077200
F 2.02515500 -0.99763300 0.57885500
F 2.07488900 -0.33472500 -1.50343300
F -0.31100600 0.57146500 -1.46033200
F -0.36989400 0.72174900 0.71672600
H -1.84869400 -6.48311600 0.06426600
30
energy = -2625.43009666
C 0.11666800 0.05412400 0.56942000
C -0.87399300 0.52198400 1.67594100
C -2.40779500 0.35039900 1.39077100
C -2.96551000 -1.12140800 1.23262700
C -3.23519400 -1.52063900 -0.24570800
F -4.22561000 -0.77160800 -0.73153600
F -2.13387400 -1.34063600 -0.96902800
S -3.76273300 -3.30780600 -0.51714800
O -3.92830800 -3.43634700 -1.93994300
O -2.93498100 -4.17073000 0.26778000
O -5.20326000 -3.27710400 0.16901100
F -2.11054800 -1.98464100 1.78178600
F -4.13227100 -1.19376700 1.87703000
F -3.01533900 0.88689900 2.45273500
F -2.72699600 1.06961000 0.30729100
F -0.69389900 1.83712100 1.86072800
F -0.59185200 -0.12282100 2.81066700
C 1.60996200 0.50407500 0.81967300
C 2.02506500 1.78931400 0.04122000
C 3.37788800 2.39186200 0.52436400
F 3.23576400 2.95064100 1.71557300
F 4.30535100 1.44660700 0.59250000
F 3.76591200 3.31649200 -0.34066900
F 1.08914600 2.73377000 0.18004900
F 2.15350800 1.47450500 -1.25057800
F 1.80784100 0.70632000 2.13033000
F 2.40591900 -0.48633700 0.41343700
F 0.09044000 -1.27942400 0.52421400
F -0.28252800 0.53714700 -0.61595400
H -5.87968300 -3.05618500 -0.49468200
30
energy = -2625.7127029300004
C 0.14218700 0.16211300 0.02722100
C -0.65993600 -1.17083800 0.19187100
C -2.23611000 -1.09013200 0.10904600
C -2.91612300 -0.59452800 -1.23471800
C -3.39750500 0.89810400 -1.19006900
F -4.53403400 0.96585200 -0.50378600
F -2.50014400 1.68503400 -0.61965100
S -3.73726200 1.56586900 -2.91081700
O -2.50002800 1.94327000 -3.48402200
O -4.66496600 0.67994200 -3.52600400
O -4.47767600 2.89313800 -2.50138700
F -2.08246600 -0.76354300 -2.25825800
F -3.99253600 -1.34166200 -1.43943300
F -2.63664900 -2.34310800 0.30627600
F -2.68230000 -0.34368000 1.11988400
F -0.41340800 -1.65865500 1.40694800
F -0.24068200 -2.04367000 -0.71998300
C 1.70068200 -0.04130900 0.08239200
C 2.51542800 1.31134700 0.21035700
C 2.95180300 1.67601100 1.66985400
F 1.92354300 1.63075600 2.49576500
F 3.88587600 0.84793000 2.09257500
F 3.44189200 2.90117600 1.66434000
F 1.79652100 2.32225300 -0.27219300
F 3.62568600 1.19541500 -0.50910700
F 2.02351000 -0.82886400 1.10885600
F 2.06827400 -0.63964900 -1.04355200
F -0.14702700 0.69192400 -1.15791300
F -0.23468400 0.99519500 0.99472200
H -5.42876300 2.74195500 -2.40864800
30
energy = -2625.7063269100004
C 0.02432800 0.33785100 0.18118500
C -0.74551400 0.95979400 -1.05654900
C -0.41615100 0.34951200 -2.45597000
C -1.41297100 0.79035400 -3.61533200
C -2.47461100 -0.26121800 -4.11988600
F -3.08384600 0.32225900 -5.14762600
F -1.84726900 -1.34581000 -4.54635300
S -3.88885500 -0.79072000 -3.00592900
O -4.43118200 0.37791900 -2.40407700
O -4.64184300 -1.68559300 -3.80351300
O -3.15306200 -1.65114100 -1.91935400
F -2.04822300 1.90388700 -3.26729600
F -0.66267300 1.04834000 -4.68406500
F 0.80548100 0.75612800 -2.78240900
F -0.41664200 -0.97945000 -2.35071800
F -0.56210800 2.26590900 -1.08268300
F -2.04521100 0.72420100 -0.79644500
C 1.57473000 0.05015100 0.15634800
C 2.56021100 1.27268900 0.00642600
C 3.06130800 1.90323600 1.35013600
F 2.04515000 2.21499000 2.13118800
F 3.86093100 1.07071500 1.98359600
F 3.73221400 3.00193700 1.06161000
F 1.96979100 2.23263700 -0.70258600
F 3.63514100 0.85382400 -0.64997200
F 1.83916300 -0.55963900 1.31325800
F 1.81674000 -0.80467300 -0.82997600
F -0.23625500 1.14143800 1.20764600
F -0.53951700 -0.85019300 0.41777600
H -2.97532300 -1.12375300 -1.12631300
30
energy = -2625.43297822
C -0.08720700 0.18581100 0.15840100
C -0.59964900 0.70039100 -1.22413300
C -2.14352600 0.51556400 -1.38490700
C -2.77183100 1.37093500 -2.54947000
C -3.33582400 2.74650200 -2.07535200
F -4.50221100 2.53991000 -1.47079100
F -2.49385700 3.34270400 -1.23707500
S -3.63537300 3.98148300 -3.46421900
O -4.61392500 4.91304200 -2.97062200
O -2.36132700 4.36955800 -3.98593500
O -4.33534600 3.03427700 -4.54407400
F -1.85807300 1.55666000 -3.50670000
F -3.79417700 0.67557300 -3.05288600
F -2.37732100 -0.76808700 -1.65574200
F -2.75577900 0.83823300 -0.23552100
F -0.00187200 0.01982800 -2.20570900
F -0.29311300 1.99663000 -1.33079700
C 1.43767700 -0.13613200 0.26544300
C 2.46744800 0.97871300 -0.08550600
C 2.44052600 2.27901700 0.76714500
F 1.35569900 2.98983200 0.50025400
F 2.46671000 1.99046700 2.05941100
F 3.50877600 3.00016500 0.46319500
F 2.30379200 1.31910000 -1.37001600
F 3.67690300 0.42956800 0.07231800
F 1.64958400 -0.51464000 1.53186600
F 1.70150500 -1.16822500 -0.54249000
F -0.38791100 1.09480400 1.09184500
F -0.72374100 -0.95885600 0.44274400
H -5.30225500 3.11975800 -4.47537000
30
energy = -2625.7187083600006
C 0.02868000 -0.08025800 0.01306200
C -0.50303500 -1.56470000 0.07235700
C -0.07548700 -2.44375200 1.30108300
C -1.06954300 -3.63740000 1.54447400
C -0.44196400 -4.75777200 2.44298400
F 0.37821500 -5.49939100 1.71822500
F 0.22289900 -4.20901300 3.45073400
S -1.72654000 -5.92897000 3.15459600
O -2.68678400 -6.17285700 2.13332700
O -0.99306900 -6.94727300 3.80919700
O -2.36663400 -5.03516900 4.27683600
F -2.16254100 -3.16372100 2.15655400
F -1.41456800 -4.16545100 0.37941500
F 1.13056500 -2.95493600 1.06847300
F -0.03876400 -1.69288100 2.39741000
F -0.13439500 -2.18489200 -1.04137500
F -1.83408300 -1.45321700 0.08922300
C 1.57586800 0.10419100 0.00175700
C 2.10395900 1.58650400 0.04956300
C 1.57502800 2.58291600 -1.03187300
F 1.62914600 2.03776600 -2.23199000
F 0.33279700 2.93611300 -0.76406100
F 2.33287200 3.66172300 -1.01508000
F 3.42444300 1.49989900 -0.09857200
F 1.83556000 2.10089500 1.24516500
F 2.08140800 -0.48737000 1.08498500
F 2.06618600 -0.48508000 -1.08368200
F -0.45328000 0.41452300 -1.12781400
F -0.48572000 0.60078000 1.03232600
H -3.10064600 -4.51494700 3.91978600
30
energy = -2625.43060937
C 0.15357300 0.32752400 -0.10533000
C -0.36861200 1.10313000 1.15530800
C -0.22928700 2.66579700 1.23629800
C -0.79792800 3.49996900 0.04301900
C -1.19430300 4.94067500 0.48654500
F -2.37172700 4.91415100 1.10944900
F -0.26490000 5.44666600 1.28825500
S -1.37686100 6.08855700 -0.99321100
O -0.08384900 6.59210900 -1.33916900
O -2.26226200 5.43243900 -1.91893100
O -2.16409900 7.27948300 -0.27693800
F 0.14218700 3.60914800 -0.90041900
F -1.87909500 2.89857800 -0.45443200
F -0.91514800 3.01099100 2.33896100
F 1.04873600 2.99730300 1.40912800
F 0.26248500 0.61802000 2.23410900
F -1.67401600 0.84094700 1.26233700
C 1.63411500 -0.18499800 -0.10630800
C 2.74812800 0.88018700 0.07928900
C 4.14343700 0.41140300 -0.42933400
F 4.40245100 -0.80830600 0.02373800
F 4.17835100 0.40561500 -1.75095500
F 5.06673400 1.24565100 0.02266300
F 2.85789600 1.15766800 1.38123000
F 2.41043600 1.98903700 -0.59307300
F 1.76310800 -1.11123800 0.84448200
F 1.80704100 -0.76184600 -1.30579200
F -0.58739500 -0.78263300 -0.19909400
F -0.04400100 1.06563600 -1.20302800
H -3.12256800 7.12243200 -0.33177400
30
energy = -2625.4310093500003
C 0.07526400 0.08807100 -0.04983600
C -0.66605500 -1.26642300 0.13549000
C -2.23469200 -1.24727100 0.08832500
C -2.94057300 -0.74086500 -1.22436400
C -3.43347500 0.74038500 -1.14476300
F -4.58142700 0.76777400 -0.47913000
F -2.54524500 1.51472400 -0.52839200
S -3.76218800 1.48853300 -2.83730000
O -4.41820900 0.48397200 -3.63101600
O -4.29581800 2.79476100 -2.60386300
O -2.26707100 1.68118100 -3.35600600
F -2.10046000 -0.88993100 -2.26912100
F -4.00955400 -1.49955300 -1.43775000
F -2.59448900 -2.52163900 0.26129500
F -2.68385000 -0.52812400 1.12432700
F -0.36540600 -1.74152300 1.34894200
F -0.22679400 -2.12003600 -0.79604300
C 1.63018600 -0.04941900 -0.04668100
C 2.41574800 1.29191800 0.12005200
C 2.05387200 2.43302100 -0.86927800
F 2.03006600 1.97268200 -2.11298500
F 0.86644000 2.93777000 -0.56698300
F 2.96331900 3.38908600 -0.77790500
F 3.70711100 0.99296700 -0.05789500
F 2.23455100 1.74271800 1.36378500
F 2.01032200 -0.83442000 0.96672800
F 1.99832100 -0.61407800 -1.20033000
F -0.26354500 0.60743200 -1.24244000
F -0.30535300 0.91709300 0.92559300
H -1.96781100 0.86879100 -3.80062600
30
energy = -2625.429094490001
C 0.30021700 0.06259800 0.16636300
C -0.25321900 -1.40945600 0.30667700
C -1.80024100 -1.58315100 0.14281900
C -2.67551500 -0.85183800 1.22611200
C -3.35448000 -1.75676600 2.30278100
F -4.06872100 -0.93878900 3.08656500
F -4.17029400 -2.61927900 1.71200900
S -2.22273500 -2.69183600 3.47399700
O -1.71915000 -3.85409000 2.81124000
O -1.39404200 -1.70912900 4.11948900
O -3.33754000 -3.18884500 4.50325900
F -1.93118100 0.06133600 1.86239000
F -3.68055700 -0.23087600 0.60368100
F -2.15123900 -1.15146500 -1.06775300
F -2.03853800 -2.89894900 0.20774200
F 0.09201500 -1.88467500 1.50540900
F 0.28901600 -2.18106500 -0.64362900
C 1.59260700 0.15527100 -0.69498200
C 2.35233600 1.52136800 -0.62545700
C 1.51342300 2.79770500 -0.90612400
F 0.77364600 2.63311300 -1.99408900
F 0.72309000 3.06054000 0.12541000
F 2.33151400 3.82200200 -1.08926500
F 3.31597400 1.45799400 -1.55182400
F 2.91136000 1.64743300 0.58024000
F 2.45783000 -0.76979800 -0.25921400
F 1.28048100 -0.08168100 -1.97132300
F -0.63994200 0.83170000 -0.40774900
F 0.57972600 0.54433400 1.37765600
H -3.46841300 -2.51851100 5.19616900
30
energy = -2625.42749287
C 0.30568200 0.08183100 0.12838200
C -1.05798400 0.61867700 0.69686900
C -1.30429800 2.13885400 0.98733600
C -1.59159600 3.02032200 -0.26536900
C -1.45428300 4.56126700 -0.05451900
F -0.18919500 4.85758300 0.24717700
F -1.78134600 5.13841000 -1.20760100
S -2.54447800 5.37082800 1.23842000
O -2.30025300 6.78257600 1.11670900
O -3.84430600 4.77716800 1.17084700
O -1.84325300 4.84237100 2.57143600
F -0.71712400 2.71292800 -1.23352500
F -2.82432500 2.76410700 -0.69568000
F -2.39120600 2.19807300 1.76149400
F -0.26512300 2.63689600 1.67214200
F -1.24890800 -0.01401200 1.85966900
F -1.99856500 0.22723000 -0.17404000
C 1.62325800 0.42378800 0.91874200
C 2.43689200 1.61426000 0.31916000
C 3.48338000 2.20107100 1.31045100
F 2.87335500 2.88390000 2.26777100
F 4.19698900 1.22584300 1.85499900
F 4.29319100 3.01497700 0.65167600
F 1.61708500 2.61093700 -0.04182300
F 3.08510000 1.17293100 -0.75996000
F 1.33120500 0.67653300 2.20261100
F 2.41576700 -0.64868000 0.86982900
F 0.16517600 -1.24853200 0.15977600
F 0.45430900 0.45341900 -1.14687800
H -1.15721200 5.47213700 2.85403600
30
energy = -2625.4275524
C 0.39012800 -0.32498100 -0.10474300
C -0.46626600 0.06746400 -1.35626300
C 0.15718100 -0.31202400 -2.73869800
C -0.52442300 0.43413100 -3.91954300
C -0.14557200 -0.09097900 -5.34092700
F -0.77240100 0.70696700 -6.21345400
F 1.16729700 0.00697600 -5.50620700
S -0.66191200 -1.84736200 -5.78376700
O 0.40331300 -2.73583000 -5.43825900
O -2.02503000 -2.00861500 -5.35282800
O -0.63083300 -1.70092200 -7.37296300
F -1.84920000 0.37608600 -3.77472900
F -0.12993500 1.71312000 -3.89060300
F 1.46043200 -0.02355000 -2.75863300
F -0.00366600 -1.62793200 -2.91761100
F -0.74735100 1.37593300 -1.32472600
F -1.61043000 -0.61327600 -1.24740100
C 1.67236300 0.47308000 0.32826000
C 1.53162700 2.01774800 0.56837600
C 2.00764400 2.89876000 -0.62676600
F 1.52489700 2.44822500 -1.78002400
F 1.58595600 4.13930300 -0.44224400
F 3.32883900 2.89334400 -0.68682300
F 2.29793500 2.34486000 1.61195400
F 0.26230400 2.32147000 0.85830000
F 2.01830600 -0.08017100 1.49652600
F 2.66463800 0.26052300 -0.54293000
F -0.44367200 -0.28229300 0.94008100
F 0.79138300 -1.59037400 -0.29554500
H -1.48294100 -1.35883000 -7.69393500
30
energy = -2625.4259665300006
C 0.43615100 0.70146600 -0.37982600
C -0.01238000 0.72225500 1.11921600
C -0.86566200 1.97911200 1.51485200
C -0.09806600 3.22070700 2.08239600
C 0.70860000 3.15741200 3.43231500
F 1.92295800 2.66908100 3.21515900
F 0.82071600 4.41871800 3.85688100
S 0.00236700 2.19475000 4.87553500
O -0.13154300 0.82642200 4.47700200
O 0.74195300 2.61347700 6.03531600
O -1.45819100 2.83863900 4.94142100
F 0.78087000 3.63169300 1.16108400
F -1.03588400 4.16141000 2.24422500
F -1.51181900 2.41757900 0.42424500
F -1.77620100 1.60998000 2.41625200
F 1.06488600 0.67025400 1.91546000
F -0.75562600 -0.36289800 1.32422200
C 1.58345000 -0.33587000 -0.68444600
C 3.04264400 0.21688000 -0.78019200
C 3.64827000 0.89603900 0.47676300
F 2.97499300 1.99769900 0.78940200
F 3.62616400 0.06026100 1.50256500
F 4.90316000 1.22697200 0.21479900
F 3.10440000 1.08447100 -1.79467100
F 3.81780000 -0.83873400 -1.05959500
F 1.55796200 -1.31519400 0.22820400
F 1.32977600 -0.86288900 -1.88638800
F -0.63150900 0.35861200 -1.10195000
F 0.83941400 1.91986700 -0.76191600
H -1.46977900 3.54664300 5.60921400
30
energy = -2625.43275404
C 0.08418500 -0.01246700 0.03052600
C -0.54675700 0.71991800 -1.19816700
C -0.19352300 0.16535800 -2.60968300
C -1.14927100 0.64748300 -3.75400600
C -1.31597800 2.18831600 -3.88556600
F -2.15567000 2.61654500 -2.95325700
F -0.13655900 2.78894700 -3.75057400
S -1.97228600 2.73123900 -5.57442900
O -2.76630100 3.89811800 -5.34015200
O -0.86410200 2.68449500 -6.48930000
O -2.97799500 1.54098500 -5.92117000
F -0.62541100 0.18220900 -4.90342900
F -2.34756300 0.09367300 -3.57692400
F 1.04930400 0.52979100 -2.92828000
F -0.27350600 -1.16976900 -2.59101400
F -0.19750200 2.01069800 -1.15595800
F -1.87240000 0.62320500 -1.03129600
C 1.62966300 -0.17267400 0.11917300
C 2.52969800 1.10009600 0.15658000
C 2.25248000 2.13366600 1.28658400
F 1.16399500 2.83594400 1.01114100
F 2.09684700 1.52188100 2.45106000
F 3.28438400 2.95917700 1.36512200
F 2.43791300 1.73335700 -1.01715100
F 3.78107500 0.65605600 0.31758300
F 1.86673800 -0.86733100 1.23712200
F 2.02734400 -0.89990100 -0.93413500
F -0.32029900 0.65950400 1.11752300
F -0.42715000 -1.24633600 0.07321400
H -2.51267700 0.86060900 -6.43931000
30
energy = -2625.43165064
C 0.19019500 -0.04947600 0.00480500
C -0.61078400 0.74717500 1.06686400
C -2.17428700 0.64509600 1.01605100
C -2.83819500 -0.76718700 1.24113100
C -3.29224100 -1.45384600 -0.08322600
F -4.39794300 -0.86403600 -0.51871800
F -2.34611400 -1.37200000 -1.02113800
S -3.69924900 -3.27729500 0.12087600
O -4.34745700 -3.45416700 1.38448400
O -4.26436300 -3.69471800 -1.13415300
O -2.22576100 -3.87820200 0.24369800
F -1.99258900 -1.56514500 1.90133300
F -3.93284500 -0.59193400 1.97786300
F -2.60052000 1.44487200 1.99643100
F -2.59114300 1.14146300 -0.15684300
F -0.34360100 2.04823700 0.87623900
F -0.19751200 0.38734900 2.28431900
C 1.75001300 0.07779300 0.08690600
C 2.35165100 1.51033000 -0.00655200
C 3.85824900 1.51523000 -0.40413500
F 4.52594100 0.63840600 0.33413300
F 4.00191900 1.21043300 -1.68339100
F 4.35295400 2.72478200 -0.19209200
F 2.24581000 2.09403700 1.19076500
F 1.68328600 2.22421300 -0.91825800
F 2.15498300 -0.47694400 1.23111800
F 2.22086900 -0.64417100 -0.94181900
F -0.06424000 -1.35739500 0.16312700
F -0.21039200 0.33184000 -1.21077900
H -1.91477100 -4.16373000 -0.63294000
30
energy = -2625.43228453
C 0.14813800 0.11788100 -0.05485600
C -0.54290800 -1.27034200 0.18286000
C -0.33798200 -1.95377200 1.59056600
C 0.71402000 -3.10091300 1.59539100
C 1.17619600 -3.57046000 3.01180500
F 1.95211700 -4.64443200 2.83042400
F 1.88061500 -2.60999200 3.59477300
S -0.18306600 -4.09957500 4.18865800
O -0.78247100 -2.91965000 4.73129400
O -0.91663800 -5.15743200 3.54659500
O 0.73685600 -4.72789000 5.33217800
F 0.20891700 -4.15199800 0.95238800
F 1.82482900 -2.68798000 0.96881700
F 0.01025300 -1.03429600 2.49676700
F -1.50271400 -2.49993400 1.95198600
F -0.16990700 -2.11838600 -0.78279200
F -1.84978300 -1.02428100 0.05400900
C 1.70312000 0.15980700 -0.04351600
C 2.28042700 1.51674800 -0.56058500
C 3.77442500 1.73243600 -0.17503600
F 3.88497700 1.99281600 1.11755900
F 4.48432600 0.64995500 -0.46589300
F 4.25029000 2.75874700 -0.86292900
F 1.57754400 2.53560900 -0.05462100
F 2.19113300 1.53472000 -1.89216800
F 2.13262400 -0.04421200 1.20957300
F 2.17016900 -0.80730400 -0.83945200
F -0.24751600 0.51673500 -1.27302600
F -0.32278900 0.96843600 0.86007800
H 0.87698800 -5.67492300 5.15857700
30
energy = -2625.43440738
C 0.19800800 0.32716600 -0.43412500
C 0.58012000 -1.13763500 0.00042800
C 0.64536600 -1.34155900 1.54740200
C 1.34218700 -2.68258100 1.98825000
C 2.86175800 -2.52211000 2.29020700
F 3.46168100 -1.78846200 1.36243000
F 3.01078100 -1.94842800 3.48459300
S 3.72761100 -4.19000800 2.36230500
O 2.97760300 -5.01046600 3.27609800
O 4.06671400 -4.57893900 1.02846000
O 5.08050400 -3.72628500 3.07312500
F 0.75115200 -3.10121100 3.10508400
F 1.18507600 -3.60923200 1.03395100
F 1.29719000 -0.32243300 2.12592000
F -0.60811800 -1.36471300 2.00095500
F 1.75403300 -1.46296300 -0.55497500
F -0.36065600 -1.96096600 -0.46499400
C 1.42691500 1.22856100 -0.75550800
C 1.13799300 2.76178100 -0.82809500
C 0.00975700 3.20514300 -1.79868500
F 0.17790900 2.64562500 -2.98794400
F -1.17386700 2.85548000 -1.31403500
F 0.04636100 4.52177800 -1.92909400
F 2.27372300 3.33841100 -1.23719600
F 0.83663900 3.20522700 0.39539500
F 2.35348800 1.06560300 0.19773600
F 1.93139300 0.84348400 -1.93039700
F -0.53803300 0.24413300 -1.54622000
F -0.53752600 0.89610600 0.53103900
H 4.98478200 -3.79085100 4.03908200
30
energy = -2625.4349761900003
C 0.04252200 -0.00509800 -0.17480500
C -0.62106400 -1.39250300 0.09602500
C -2.16616600 -1.40746500 -0.12588000
C -2.81676900 -2.84057500 -0.00000500
C -3.02564900 -3.54568100 -1.37273000
F -4.06730500 -2.99537600 -1.99705100
F -1.94056800 -3.44659200 -2.12926700
S -3.41320700 -5.37444700 -1.15514200
O -2.17817300 -6.08489500 -1.03072900
O -4.49462800 -5.46449800 -0.20999700
O -3.97827200 -5.67243300 -2.61891000
F -2.05384400 -3.63049200 0.76610400
F -4.01063200 -2.69650900 0.56995500
F -2.70742000 -0.61849400 0.80368400
F -2.47344700 -0.92057700 -1.33628800
F -0.40319500 -1.71201400 1.37507500
F -0.04814300 -2.30017800 -0.70310700
C 1.60557200 -0.05469600 -0.10871300
C 2.22930100 1.36185500 0.08135100
C 3.74440900 1.42349000 -0.27038600
F 4.39160000 0.43391800 0.33075000
F 3.91930300 1.32958600 -1.57859700
F 4.23643400 2.57943800 0.14818500
F 2.08456700 1.72147400 1.35875300
F 1.58788100 2.23597400 -0.70379800
F 1.99585500 -0.82535200 0.91041500
F 2.05480400 -0.57953100 -1.25458500
F -0.29623800 0.42581200 -1.39291200
F -0.40915900 0.85694700 0.74438800
H -4.93844600 -5.51752800 -2.63993600
30
energy = -2625.4264760600004
C 0.02993700 0.17376800 -0.25234100
C -0.74533500 0.70854900 -1.50667100
C -0.66219900 -0.00941600 -2.90755100
C -0.68737500 -1.55811600 -2.87775200
C -0.92833200 -2.28193200 -4.24429700
F -0.76587500 -3.58038400 -4.01534100
F -2.17661700 -2.04453300 -4.63633100
S 0.17167100 -1.82477400 -5.69897200
O 0.18338000 -2.96245300 -6.56532200
O -0.22133600 -0.50577500 -6.11588200
O 1.60059300 -1.75789400 -4.99647600
F 0.47886500 -1.97916800 -2.37063000
F -1.69150700 -1.94365600 -2.08244500
F -1.70697300 0.42467000 -3.61138700
F 0.46302700 0.38975300 -3.53051600
F -0.35602600 1.97287400 -1.71772300
F -2.03334800 0.69673300 -1.15404800
C 1.60144600 0.19771000 -0.30029600
C 2.33837200 1.38331000 0.40581200
C 2.05848200 2.82479900 -0.10142100
F 2.17689300 2.87199800 -1.42216400
F 0.84485300 3.22169300 0.24558800
F 2.94642500 3.64252900 0.44088300
F 3.64373000 1.15363500 0.21180100
F 2.07458300 1.33455800 1.71312200
F 2.03481000 -0.90221200 0.31923000
F 2.00847500 0.15690300 -1.57830700
F -0.37700000 0.93301300 0.77382600
F -0.36414100 -1.08021100 -0.02500300
H 1.75702300 -0.85916000 -4.65446100
30
energy = -2625.42406116
C 0.57366800 0.44416500 -0.61414400
C 0.07452600 -0.97318400 -0.13887500
C -0.08909500 -2.05559900 -1.26669900
C -1.40499200 -2.17776300 -2.12185900
C -1.74039500 -1.14257500 -3.25060900
F -0.62723000 -0.76119000 -3.87324200
F -2.53584000 -1.75017100 -4.11972400
S -2.70009700 0.39069000 -2.66725300
O -4.03096700 0.28208200 -3.17765500
O -2.40317300 0.58667200 -1.27168600
O -1.96388300 1.51504700 -3.52108100
F -1.25584800 -3.34492500 -2.76604100
F -2.45576300 -2.27042800 -1.30243400
F 0.95727400 -1.95980200 -2.09878600
F -0.02234800 -3.23000700 -0.62612500
F -1.06476500 -0.84308700 0.52906000
F 0.99655400 -1.46518400 0.70320400
C 2.12188300 0.69645100 -0.51992100
C 2.58606100 1.23975100 0.87013500
C 4.11536800 1.07310600 1.10284000
F 4.41387600 -0.19875100 1.31089700
F 4.78116900 1.51296100 0.04259300
F 4.47174800 1.78022800 2.16294000
F 1.94202100 0.61209600 1.85878800
F 2.29773800 2.54268200 0.92059500
F 2.78675500 -0.42212800 -0.82870100
F 2.42342000 1.63131800 -1.42754400
F 0.24916100 0.60806600 -1.92074200
F -0.04325800 1.38724400 0.09098300
H -1.13503800 1.77181300 -3.07798800
30
energy = -2625.4099423800003
C -0.04770600 0.29537700 0.12998900
C -0.63584200 0.81683100 -1.25096100
C -1.03550300 2.36737200 -1.47785900
C -0.75268500 3.45408700 -0.39737600
C -1.03526600 4.92847800 -0.85336800
F -2.29397600 5.03262100 -1.26703000
F -0.85652100 5.68110900 0.22856500
S 0.08592000 5.69697300 -2.16701300
O -0.03869500 7.11001200 -1.98236300
O 1.34361800 4.99863900 -2.15690300
O -0.70560200 5.33871000 -3.50198700
F -1.59373200 3.23760800 0.62155000
F 0.50593100 3.39083000 0.03266400
F -0.41204500 2.74907300 -2.61321900
F -2.34868600 2.40369800 -1.70293900
F -1.75707100 0.13507200 -1.47583200
F 0.23912000 0.48760900 -2.21113900
C 1.43915400 -0.21272900 0.14685500
C 2.63229800 0.78455900 0.00043400
C 2.93126500 1.39938300 -1.39470100
F 2.98903000 0.45801000 -2.32370200
F 1.99231500 2.27889100 -1.72183700
F 4.09459000 2.02422300 -1.33767200
F 3.72425500 0.09198200 0.34664400
F 2.45114100 1.78660100 0.86704400
F 1.58669300 -0.73420800 1.37397600
F 1.56661700 -1.19210600 -0.75243200
F -0.19888900 1.19616300 1.10291300
F -0.76209800 -0.78685900 0.45520700
H -0.39943000 4.48129900 -3.84329900
30
energy = -2625.4271214399996
C 0.19898600 0.44969100 0.78578100
C -0.42079900 -0.96029200 0.46815700
C -0.30632200 -2.09804600 1.54122900
C 1.12502000 -2.49648200 1.98332900
C 1.14246500 -3.55789700 3.12469300
F 0.82027500 -2.97561100 4.27166300
F 0.29003800 -4.54834800 2.86801000
S 2.84771600 -4.33024400 3.31332000
O 2.99925800 -5.33643100 2.29629000
O 3.77432800 -3.25940900 3.52281800
O 2.61856800 -5.06359500 4.71448400
F 1.79267100 -2.97683900 0.93164600
F 1.73369900 -1.39845700 2.44754500
F -0.98636000 -1.73429800 2.63409900
F -0.89514800 -3.16615400 0.99223600
F 0.04849000 -1.42965900 -0.68892000
F -1.73956900 -0.75575600 0.34356500
C 1.73880200 0.67075200 0.50205600
C 2.06951400 1.84931100 -0.47564200
C 1.48606800 1.74218300 -1.93327200
F 1.03632300 0.51022500 -2.15799600
F 0.49111400 2.59569500 -2.09810600
F 2.43059500 2.01535800 -2.81711300
F 3.40249100 1.87770200 -0.56373100
F 1.64726000 2.98645200 0.08212200
F 2.33542800 0.99191500 1.65117800
F 2.30237900 -0.44457800 0.02153900
F -0.47695200 1.32714200 0.02263200
F -0.05285200 0.72666800 2.06629800
H 2.43872200 -6.00682400 4.55716400
30
energy = -2625.43419906
C 0.00201100 0.27387800 -0.31258600
C -0.66130200 0.85591900 0.96671100
C -2.20788400 0.64247000 1.12278800
C -3.09617000 1.11858800 -0.06199700
C -4.62461100 0.93597100 0.18629500
F -4.92343000 -0.35508400 0.10798800
F -4.97591800 1.40918100 1.37606900
S -5.67794800 1.81606200 -1.10590800
O -5.03180500 1.66489400 -2.38261200
O -7.02788200 1.42216400 -0.84391500
O -5.52658600 3.32836200 -0.62291900
F -2.84840700 2.42290100 -0.28592400
F -2.77746100 0.41007800 -1.14448900
F -2.44741900 -0.65648100 1.31910200
F -2.54954100 1.32649600 2.22053700
F -0.41730000 2.17089300 1.00194700
F -0.11188300 0.27508000 2.04046100
C 1.55832800 0.10795800 -0.25030400
C 2.35779100 1.38357500 0.13803100
C 3.88371400 1.27497200 -0.15325000
F 4.36380600 0.13925800 0.33399600
F 4.10863100 1.32169900 -1.45602900
F 4.50248800 2.29127000 0.42797100
F 2.20092700 1.59799000 1.44875200
F 1.88378100 2.43257000 -0.54331000
F 1.85179800 -0.86392800 0.61549900
F 1.93869400 -0.27019700 -1.47878900
F -0.49925400 -0.94598700 -0.54088700
F -0.28710200 1.07464200 -1.34322200
H -4.77220500 3.74160100 -1.07809900
30
energy = -2625.42868202
C 0.22532100 0.21794200 0.06740300
C -0.63672500 0.90498400 -1.02824000
C -2.19514800 0.74828700 -0.93657500
C -2.92477200 1.33216900 0.32706100
C -3.29379400 0.30254700 1.44334800
F -2.18934100 -0.28957700 1.89150400
F -3.85163300 1.00129100 2.42764100
S -4.51096200 -1.06539900 0.95250100
O -5.39515200 -0.51998500 -0.03323800
O -3.76508100 -2.28236900 0.77713200
O -5.32568600 -1.18334800 2.32113100
F -2.14045200 2.24919700 0.91228500
F -4.04720000 1.92647000 -0.06536100
F -2.66575400 1.39474400 -2.00446800
F -2.50213300 -0.55249700 -1.04869000
F -0.29489900 0.36955500 -2.20835800
F -0.35371700 2.21184700 -1.04267600
C 1.75372100 0.09190100 -0.25909100
C 2.47377000 1.40942300 -0.65888000
C 4.02646600 1.31422800 -0.58935800
F 4.43281500 1.28891800 0.66941000
F 4.44485300 0.21796300 -1.20714400
F 4.54768300 2.37391500 -1.18847600
F 2.08359000 2.39445600 0.15796600
F 2.13622700 1.71042400 -1.91723800
F 2.32887600 -0.38095400 0.85674600
F 1.91037700 -0.79839100 -1.23955800
F 0.10007700 0.89230200 1.21368600
F -0.21752800 -1.03369100 0.23894500
H -5.00775400 -1.95885500 2.81497500
30
energy = -2625.4323005399997
C 0.14813200 0.11791000 -0.05483900
C -0.54277100 -1.27036800 0.18297700
C -0.33785000 -1.95373800 1.59073100
C 0.71416900 -3.10085200 1.59553300
C 1.17619800 -3.57057400 3.01191700
F 1.95209700 -4.64454900 2.83051300
F 1.88056800 -2.61018200 3.59507600
S -0.18321200 -4.09972900 4.18862500
O -0.78254000 -2.91980900 4.73135900
O -0.91684000 -5.15744800 3.54639300
O 0.73654600 -4.72827100 5.33215300
F 0.20916700 -4.15184200 0.95229500
F 1.82502400 -2.68779200 0.96912300
F 0.01039800 -1.03426100 2.49692700
F -1.50257300 -2.49988700 1.95217700
F -0.16961000 -2.11842300 -0.78260900
F -1.84966400 -1.02446000 0.05403600
C 1.70310900 0.16000200 -0.04355700
C 2.28035500 1.51691200 -0.56073800
C 3.77439800 1.73248100 -0.17528500
F 3.88507100 1.99299000 1.11727200
F 4.48409700 0.64985000 -0.46606800
F 4.25038500 2.75864000 -0.86331800
F 1.57752100 2.53580900 -0.05479300
F 2.19102300 1.53482700 -1.89232100
F 2.13255300 -0.04379800 1.20960100
F 2.17033800 -0.80715500 -0.83932000
F -0.24766600 0.51666100 -1.27299600
F -0.32280100 0.96848400 0.86007500
H 0.87656700 -5.67530800 5.15848200
30
energy = -2625.4308985000002
C 0.31381600 -0.15678100 0.27117200
C -0.31550000 -1.59465100 0.44304600
C -0.23535500 -2.57169700 -0.78204400
C 1.17399800 -3.03686300 -1.24714900
C 1.10981400 -4.22088800 -2.26757300
F 0.96320600 -5.35634100 -1.60373900
F 0.09721000 -4.05503500 -3.11395400
S 2.66122100 -4.35882400 -3.33906800
O 2.82090400 -5.74710800 -3.64535000
O 2.57938400 -3.32208500 -4.33211700
O 3.79798400 -3.97990600 -2.28297800
F 1.81086000 -1.99929600 -1.82036200
F 1.87179400 -3.45110800 -0.18933400
F -0.89783500 -3.67725700 -0.41082100
F -0.87092500 -1.99899500 -1.80546400
F -1.62400800 -1.42739500 0.65490500
F 0.21890800 -2.19247500 1.51352800
C 1.70957300 0.00885500 0.93777000
C 2.50934600 1.28809500 0.53115900
C 1.78447800 2.64969200 0.71142100
F 0.83743000 2.78731300 -0.20543100
F 1.24253000 2.72618900 1.91801700
F 2.66517000 3.62679200 0.56748000
F 2.87822000 1.17602700 -0.74835500
F 3.60197900 1.30426100 1.30273200
F 1.54862800 0.01590100 2.26154800
F 2.48074400 -1.03402400 0.59141900
F 0.40808100 0.14289600 -1.03058900
F -0.50667200 0.71917100 0.85829300
H 3.95570800 -3.01921600 -2.30485300
30
energy = -2625.427309930001
C -0.00041100 0.34508800 -0.34671300
C -0.48830300 0.93114800 -1.71585600
C -0.15244500 0.09707400 -3.01432400
C -1.32658800 0.07525900 -4.03807100
C -0.97727100 -0.41745700 -5.48368500
F -2.13013300 -0.50928800 -6.13777100
F -0.19659200 0.48359400 -6.07238500
S -0.09831500 -2.06873800 -5.66495200
O -0.40301100 -2.54292200 -6.97919300
O 1.23993800 -1.88544500 -5.17076700
O -0.92169800 -2.96902900 -4.63845500
F -2.29974900 -0.70093400 -3.55592400
F -1.77377200 1.32896100 -4.18390000
F 0.91429300 0.61542800 -3.60983100
F 0.11292700 -1.18127300 -2.65926900
F 0.03074100 2.15223200 -1.86180700
F -1.81839300 1.03141000 -1.59607300
C 1.55593300 0.23036100 -0.16566700
C 2.27502900 1.32770400 0.68471600
C 2.20796000 2.79876000 0.18646600
F 2.54429000 2.86264300 -1.09414700
F 0.99269400 3.29930500 0.34529200
F 3.06170200 3.52057200 0.89512800
F 3.56853600 0.98214800 0.69147100
F 1.80245600 1.28007700 1.93277200
F 1.80736300 -0.92371100 0.45703400
F 2.12946100 0.19849100 -1.37854200
F -0.49990100 1.14634200 0.60244900
F -0.54397600 -0.86467100 -0.19803100
H -0.51318000 -2.91581500 -3.75576600
30
energy = -2625.43356935
C 0.19117200 0.09113100 0.19458000
C -0.56152600 -1.27318000 0.31495200
C -2.11467200 -1.25876200 0.10239500
C -2.93000900 -0.37770600 1.08846600
C -4.46555600 -0.31814600 0.75966400
F -4.85508100 -1.40907700 0.10773500
F -5.14015800 -0.22620800 1.90519700
S -5.00929900 1.14680600 -0.28804100
O -4.04036000 1.37072400 -1.31655900
O -6.40849600 0.93211700 -0.54426800
O -4.86186500 2.32109200 0.78385200
F -2.79012200 -0.88869900 2.31388000
F -2.44722200 0.87163200 1.08269300
F -2.38154200 -0.88202000 -1.14824900
F -2.50785200 -2.52777900 0.27599600
F -0.31307600 -1.78546900 1.52281500
F -0.08516000 -2.10241200 -0.62479500
C 1.69993500 -0.09713400 -0.16419700
C 2.54747700 1.17433500 0.14776200
C 3.92445400 1.18862000 -0.57809500
F 4.53879900 0.02512000 -0.40535500
F 3.76478700 1.41126500 -1.87224000
F 4.67299100 2.15282300 -0.06465300
F 2.77420400 1.22672800 1.46230400
F 1.86680400 2.26227000 -0.23182500
F 2.19373000 -1.11609500 0.54851500
F 1.79915900 -0.37489900 -1.46838800
F -0.38138500 0.83769700 -0.75163900
F 0.11892000 0.72172300 1.37387600
H -5.71988400 2.47455600 1.21639900
30
energy = -2625.42864214
C 0.19285400 0.48798100 -0.34367300
C -0.37071900 1.10163700 1.00079200
C -0.28604000 2.65927000 1.05836400
C -0.74454300 3.27530600 2.41455500
C -0.40842900 4.79183600 2.61835800
F -1.02849500 5.16570500 3.73793300
F 0.90544800 4.92579900 2.76649900
S -0.90835500 6.02489700 1.29692000
O -0.94727800 7.31046200 1.94046400
O -0.12890600 5.74819000 0.12938300
O -2.40866300 5.55257000 1.01712800
F -2.06411300 3.11230800 2.53137800
F -0.13586600 2.64996200 3.42958700
F 0.97354400 3.03915000 0.81710300
F -1.09979300 3.14166000 0.11397500
F 0.28217200 0.55993700 2.03455600
F -1.66395100 0.78129900 1.09834700
C 1.61255900 -0.17726900 -0.29408300
C 2.82421200 0.73729800 0.03875600
C 4.20615600 0.04955100 -0.18170200
F 4.24870200 -1.12194900 0.43721000
F 4.43295000 -0.13093900 -1.47241500
F 5.15044600 0.83416100 0.31567300
F 2.75516200 1.10776400 1.32200100
F 2.78705200 1.82040300 -0.74368700
F 1.57199400 -1.18577600 0.58135900
F 1.81632300 -0.67619300 -1.52282200
F -0.63652600 -0.49837900 -0.69954900
F 0.19431900 1.41530800 -1.30669500
H -3.02373100 6.11768100 1.51665100
30
energy = -2625.42290497
C 0.41129900 0.77141300 -0.52967500
C -0.63437100 1.44530900 0.43704900
C -0.47799100 2.98850600 0.58288600
C -1.20810900 3.63046500 1.80811100
C -2.72072400 3.34691100 2.06851100
F -2.91080200 2.04222100 2.24137000
F -3.02956100 3.99182300 3.19773300
S -3.99566000 3.90943700 0.81160000
O -3.63202300 3.40627700 -0.47678600
O -5.26846700 3.66269200 1.43315100
O -3.71904100 5.48051100 0.80875000
F -0.57147600 3.22065300 2.91235400
F -1.05836500 4.95381100 1.68604000
F 0.81897000 3.28948800 0.74836300
F -0.90927500 3.57382200 -0.53169600
F -0.57725000 0.85967000 1.63967600
F -1.84764200 1.23511900 -0.07913800
C 1.71314800 0.09909800 0.04704500
C 2.88608600 0.96598400 0.62749400
C 2.84649200 1.23075900 2.16225500
F 1.65995800 1.67952700 2.55078400
F 3.11443100 0.11310700 2.81723000
F 3.76450600 2.13743900 2.45908800
F 2.95761500 2.13048500 -0.02147100
F 4.01807900 0.28696900 0.40813400
F 1.35451500 -0.80575400 0.96772500
F 2.22954600 -0.54418600 -1.00846300
F -0.23795700 -0.24391500 -1.11223900
F 0.76554200 1.65214300 -1.47285900
H -4.29604500 5.91734200 1.45944300
30
energy = -2625.43312439
C 0.11206000 0.28693900 -0.18503100
C 0.25175200 0.53091100 -1.73139600
C 0.65932400 -0.74972700 -2.52979300
C 1.19850300 -0.40810500 -3.95491400
C 1.16833300 -1.64682800 -4.89911400
F 1.56806000 -2.73227300 -4.24714700
F -0.06848500 -1.82529800 -5.36189400
S 2.29027800 -1.40775400 -6.38868000
O 1.92635200 -0.14722200 -6.98005500
O 3.62345200 -1.76339500 -6.01308900
O 1.73145900 -2.59117400 -7.30366100
F 0.44034600 0.55067800 -4.48990300
F 2.45998100 0.01815900 -3.85039000
F 1.60567600 -1.41913600 -1.86765600
F -0.42256400 -1.52620500 -2.66430700
F 1.15559300 1.49381000 -1.96472000
F -0.93458500 0.93346800 -2.18727100
C 1.42626800 0.48486200 0.66125300
C 1.61733500 1.85792300 1.38413000
C 1.71007000 3.13135800 0.50254000
F 2.70216100 3.01776200 -0.36652000
F 0.57314200 3.33111500 -0.15260100
F 1.93757800 4.17334900 1.28645600
F 2.77497600 1.76263700 2.05021300
F 0.62288500 2.02572300 2.25999900
F 1.40192800 -0.42677900 1.63879200
F 2.50174000 0.26455200 -0.10459300
F -0.83319200 1.10924200 0.28052700
F -0.30964000 -0.97184700 -0.01295300
H 1.00142000 -2.26444500 -7.85738300
30
energy = -2625.42559624
C -0.05665200 0.32453300 -0.31609200
C -0.65511500 0.95527100 -1.62028000
C -0.57624400 0.22557300 -3.01568200
C -0.83052300 -1.30619100 -2.98975500
C -0.97469900 -1.95028500 -4.42149300
F -0.46213600 -1.14305700 -5.34938700
F -0.32481800 -3.10759100 -4.43768700
S -2.73312300 -2.36025200 -4.95187500
O -2.69374300 -2.48058800 -6.38485400
O -3.21977400 -3.38587100 -4.08148300
O -3.48596100 -1.00258600 -4.57900800
F 0.22005400 -1.87516900 -2.38768300
F -1.93520700 -1.55296200 -2.27980000
F -1.51637100 0.80597100 -3.77836100
F 0.61331200 0.45414600 -3.56933800
F -0.07228300 2.14920900 -1.79672800
F -1.95295500 1.13548700 -1.35627200
C 1.49978300 0.10796800 -0.26309300
C 2.35580700 1.16733700 0.50657900
C 2.34055700 2.63353800 -0.00799200
F 2.54839400 2.65886800 -1.31760500
F 1.18641000 3.22117500 0.26471700
F 3.31081100 3.30212600 0.59602100
F 3.62138900 0.73934000 0.40876500
F 1.99197300 1.16536000 1.79117000
F 1.72000800 -1.04676300 0.37123300
F 1.97910200 0.01087700 -1.50978600
F -0.40753000 1.15344800 0.67762000
F -0.65578200 -0.84901300 -0.10863000
H -3.54709300 -0.43705700 -5.36852800
30
energy = -2625.42353363
C 0.06300600 0.12575600 0.26217100
C -0.56184000 0.59482600 -1.08746900
C -0.23115500 -0.15997400 -2.41784500
C -0.72396000 -1.64892300 -2.57853400
C 0.33777800 -2.78438800 -2.39910200
F 0.78212100 -2.80601200 -1.14740900
F -0.30038300 -3.92329100 -2.65781700
S 1.84314500 -2.70911200 -3.54140700
O 1.40084300 -2.15572000 -4.78622800
O 2.95465100 -2.20031900 -2.78340400
O 2.07497600 -4.27402300 -3.76029100
F -1.68549800 -1.90458500 -1.68004400
F -1.23713000 -1.78579900 -3.79789700
F -0.83207900 0.55613800 -3.36933300
F 1.09556800 -0.10657700 -2.61475900
F -0.18723800 1.86430400 -1.28870500
F -1.88822400 0.56570900 -0.92054800
C 1.61063600 0.12859200 0.46356600
C 2.41635500 1.44964700 0.27220400
C 2.00243300 2.67300600 1.13942200
F 0.85562300 3.18490000 0.72067000
F 1.88226000 2.31645200 2.40999100
F 2.94417600 3.59840000 1.03647500
F 2.37172500 1.80200000 -1.01575700
F 3.67951800 1.15081400 0.59905400
F 1.80729300 -0.28638800 1.72163500
F 2.14896100 -0.76542300 -0.37217500
F -0.45675000 0.92165500 1.20726300
F -0.34312500 -1.13030900 0.48795400
H 2.80942600 -4.56870900 -3.19441600
30
energy = -2625.43243129
C -0.02450700 0.02459700 -0.29289200
C -0.73185000 -1.36239800 -0.10063400
C -0.29798100 -2.49919100 -1.06723600
C -1.02297800 -3.88272200 -0.82907900
C -0.20246800 -4.87707100 0.04584300
F 0.79807600 -5.37051800 -0.67319100
F 0.26947500 -4.26635500 1.12736800
S -1.22237200 -6.35209500 0.62300200
O -2.07099100 -6.74862700 -0.46902200
O -0.30630200 -7.23139800 1.28142900
O -2.11269600 -5.67169000 1.75755300
F -2.21506200 -3.68056700 -0.23117500
F -1.22742100 -4.44503200 -2.01416900
F -0.56220400 -2.09797700 -2.31082100
F 1.02183400 -2.70487000 -0.94420300
F -2.03316700 -1.12018500 -0.30542000
F -0.55092200 -1.76490500 1.15968900
C 1.52857400 0.05136400 -0.21210900
C 2.16072500 1.44689900 0.09703000
C 1.75440600 2.60707900 -0.85275100
F 1.91261500 2.24275700 -2.11702200
F 0.48793000 2.94455300 -0.65217000
F 2.52195000 3.65566600 -0.60300500
F 3.48499300 1.28656300 -0.00571400
F 1.85798400 1.79929300 1.34838600
F 1.92837600 -0.77503500 0.76259400
F 2.02117100 -0.36719800 -1.38226100
F -0.38425300 0.51582100 -1.48338700
F -0.51866900 0.80656500 0.67623700
H -2.93010200 -5.32014000 1.36332500
30
energy = -2625.4245934
C 0.62618900 0.01405600 0.24726500
C -0.07147700 0.65618200 1.50086000
C -0.24288700 -0.25777800 2.76650900
C -1.45153400 -1.25216000 2.92423000
C -1.51565800 -2.58849400 2.10744600
F -0.29807500 -3.11096000 1.97833000
F -2.27974300 -3.43211300 2.78671600
S -2.32092600 -2.42565700 0.39596800
O -3.58880000 -3.08365500 0.44917200
O -2.15810600 -1.05708800 -0.02331000
O -1.34970900 -3.35347300 -0.45773900
F -1.37830900 -1.64026200 4.20612000
F -2.59364100 -0.58386300 2.74177400
F 0.89866500 -0.92990800 2.95960700
F -0.41242700 0.60201500 3.78077000
F -1.24253100 1.17470800 1.15996200
F 0.73454300 1.65956500 1.90119600
C 2.15694100 0.31896700 0.10655600
C 2.54583800 1.82000000 -0.17675100
C 3.61298400 1.98601200 -1.29801800
F 4.67748400 1.24477400 -1.02201000
F 3.11688700 1.63170300 -2.47272000
F 3.97602300 3.25786600 -1.35256900
F 3.05508000 2.35395800 0.93247600
F 1.46099800 2.51397500 -0.54420000
F 2.77799600 -0.09332600 1.21094800
F 2.56713300 -0.43796000 -0.92504100
F 0.54869700 -1.34064300 0.33113600
F 0.01526500 0.39804800 -0.86362900
H -0.54837300 -2.85392300 -0.69868900
30
energy = -2625.42795845
C -0.04812100 0.18978700 -0.33960700
C -0.79937400 0.72547300 -1.60666200
C -0.76165400 -0.04147500 -2.98389600
C -0.88752100 -1.58771900 -2.90041800
C -1.15275200 -2.24652800 -4.29197500
F -2.44082500 -2.11759100 -4.59079300
F -0.41026600 -1.67146700 -5.23283000
S -0.74313900 -4.08392500 -4.35826000
O -1.54578400 -4.64286400 -5.41307600
O 0.67959300 -4.21529900 -4.28823100
O -1.34865900 -4.55543600 -2.95603600
F 0.24475300 -2.07523800 -2.38186300
F -1.92058600 -1.88893600 -2.10678200
F -1.81013600 0.41428200 -3.68628700
F 0.35398000 0.27414000 -3.63662600
F -0.34244300 1.95935700 -1.85876000
F -2.08454900 0.79827900 -1.24459600
C 1.52045600 0.11140000 -0.40515600
C 2.33587300 1.26495600 0.26656100
C 2.14793900 2.70759300 -0.27875900
F 2.25302200 2.71221400 -1.60048800
F 0.96839400 3.19719000 0.06975700
F 3.09573900 3.47803100 0.23264500
F 3.62288200 0.94683900 0.07650700
F 2.07578800 1.27008100 1.57643000
F 1.89086500 -0.99820000 0.23957500
F 1.90627300 0.01565400 -1.68347100
F -0.39578100 1.01055300 0.66177900
F -0.52149400 -1.02666200 -0.06139000
H -2.23547800 -4.93150900 -3.09421800
30
energy = -2625.4284499000005
C -0.02238000 0.04333400 -0.02910300
C -0.55009700 -1.40027400 0.34197200
C -0.46824300 -2.51020100 -0.76508700
C 0.94584800 -2.93309300 -1.25713500
C 0.92623100 -4.22906300 -2.15353500
F -0.27174000 -4.41781400 -2.69716800
F 1.82884400 -4.09234600 -3.12307400
S 1.39697300 -5.79148300 -1.21980300
O 2.81231300 -5.73895800 -0.96869300
O 0.41211500 -6.02135500 -0.20783400
O 1.13212200 -6.83935100 -2.39761800
F 1.46726900 -1.94365100 -1.98345100
F 1.73363700 -3.16417700 -0.19908400
F -1.04441300 -3.59135900 -0.22790900
F -1.18452200 -2.10316600 -1.81765200
F -1.85439700 -1.28237500 0.60814900
F 0.07202500 -1.84948400 1.43631100
C 1.37043200 0.38578700 0.56585900
C 1.95017400 1.79235000 0.20162700
C 2.14195900 2.12968700 -1.30650100
F 2.60354500 1.07523300 -1.96448700
F 0.99402600 2.51515200 -1.84229700
F 3.01352700 3.12057100 -1.41501900
F 3.15519500 1.84544000 0.78050600
F 1.16087800 2.72741000 0.73794100
F 1.27231500 0.37568400 1.89935400
F 2.24443500 -0.55001700 0.17568300
F 0.03892100 0.15674000 -1.36489800
F -0.89128400 0.94116400 0.43823400
H 1.97290600 -7.04056600 -2.84379800
30
energy = -2625.43256934
C 0.15800100 -0.08075200 0.27318300
C -0.58086000 0.84052400 1.28384400
C -2.14043300 0.73830500 1.17547700
C -2.88309900 1.29223600 2.44230700
C -3.09532500 0.26712700 3.61420400
F -2.18927900 -0.71366700 3.57401700
F -2.99289800 0.90922300 4.76837900
S -4.78954500 -0.54848200 3.56809200
O -5.73731900 0.36259900 4.13062000
O -4.93166200 -1.16586600 2.27613300
O -4.52853000 -1.68695700 4.65733700
F -2.18990200 2.33228000 2.91633500
F -4.08686900 1.72680600 2.05320000
F -2.51961000 1.48108500 0.13480300
F -2.50983100 -0.52803600 0.95996000
F -0.24281000 2.11062700 1.03552200
F -0.18741900 0.51452300 2.52135200
C 1.71507100 0.07711900 0.20633900
C 2.28443000 1.48012300 -0.16729700
C 3.72020100 1.40733500 -0.76846200
F 4.48070000 0.61485000 -0.02385600
F 3.68528100 0.94557300 -2.00729900
F 4.24346600 2.62349400 -0.77833800
F 2.34989300 2.22440500 0.93993400
F 1.48948200 2.07505700 -1.06261200
F 2.21940800 -0.27566000 1.39180000
F 2.12137700 -0.80150900 -0.72272800
F -0.05498500 -1.35280300 0.63073200
F -0.35242100 0.12784100 -0.94461900
H -4.19993700 -2.49149300 4.22016000
30
energy = -2625.4294976900005
C 0.23155000 0.23287300 -0.08582800
C -0.48030700 1.02204100 -1.22871900
C -0.39147000 0.39729000 -2.66074700
C -1.49586200 0.93119700 -3.65171400
C -2.71609800 -0.00370400 -3.94318900
F -3.51563900 0.67232100 -4.77363300
F -2.27816300 -1.10366500 -4.54719700
S -3.82231200 -0.58038600 -2.54423800
O -4.93359200 -1.23436900 -3.18053800
O -3.01293700 -1.19933000 -1.53944100
O -4.31255900 0.83040100 -1.98023300
F -1.95018200 2.11798100 -3.23622300
F -0.91506700 1.09522300 -4.84575200
F 0.79653200 0.73548500 -3.16746800
F -0.46513700 -0.93575900 -2.59897400
F 0.04215600 2.25401000 -1.28468200
F -1.76244700 1.11865100 -0.85976100
C 1.76618600 -0.02524900 -0.20913300
C 2.68933900 1.22706900 -0.30465200
C 4.17976600 0.91433200 0.02632100
F 4.33599200 0.71536200 1.32455000
F 4.57777800 -0.16497800 -0.63420500
F 4.92465400 1.94538100 -0.34297900
F 2.26953000 2.16947200 0.54538400
F 2.64242400 1.70246500 -1.55225500
F 2.11151000 -0.71341700 0.88838700
F 1.97585800 -0.79039000 -1.28674200
F 0.01276200 0.91955100 1.04134800
F -0.34966600 -0.96407200 0.01845100
H -5.15982200 1.06927800 -2.39538100
30
energy = -2625.4347552900003
C 0.04276500 -0.00001200 0.03776500
C -0.72892700 -1.35855200 0.08259900
C -2.28713300 -1.27737200 0.04355900
C -3.00077500 -0.48470900 1.18334700
C -2.74712100 -0.97102100 2.64165200
F -2.75775100 -2.29807700 2.69836000
F -1.57955800 -0.50756800 3.07094600
S -4.03763100 -0.32536000 3.85285900
O -3.58105900 -0.70787900 5.15337300
O -4.34203600 1.02970400 3.47661500
O -5.27934200 -1.26031700 3.49938100
F -2.65324700 0.79731200 1.08833200
F -4.32137800 -0.60253900 0.93423200
F -2.65961200 -0.71163900 -1.10818200
F -2.73535400 -2.53686000 0.06738300
F -0.38469200 -2.00903800 1.20003800
F -0.37106200 -2.08771200 -0.98108700
C 1.52400800 -0.17538600 -0.41473400
C 2.47653800 1.01864200 -0.08651500
C 2.02226200 2.41296000 -0.59759100
F 1.67860900 2.34282300 -1.87588700
F 0.98630800 2.84362700 0.10926300
F 3.02056100 3.27041600 -0.46199200
F 3.64687100 0.73418500 -0.66888600
F 2.64941200 1.08940500 1.23522000
F 2.03061600 -1.25067700 0.20357600
F 1.54551500 -0.37193300 -1.73482900
F -0.55802100 0.82999200 -0.82298800
F 0.01860300 0.53603600 1.26237700
H -5.81865600 -0.83826500 2.80797900
30
energy = -2625.4272594800004
C 0.45866900 -0.09572300 0.19513000
C -0.29267400 0.81007200 1.23527100
C -0.33214400 0.36008500 2.73775000
C 1.03134300 0.12582100 3.43949800
C 1.01901000 0.16254700 5.00398900
F 2.22984200 -0.21269800 5.40142300
F 0.77715500 1.40542200 5.40819200
S -0.22942400 -0.93634300 5.88392500
O 0.29458900 -1.17019700 7.19365800
O -1.52876900 -0.37557900 5.62913900
O -0.07304100 -2.29561100 5.06699900
F 1.50273200 -1.06361500 3.05487400
F 1.87266800 1.09258100 3.04694700
F -0.98880000 1.32343500 3.38365900
F -1.04457400 -0.78333200 2.81097900
F -1.57696200 0.83082000 0.86292900
F 0.18786800 2.05579900 1.18678400
C 1.98133800 0.14121000 -0.10617700
C 2.41480000 1.58463600 -0.51201700
C 3.70074500 1.60004700 -1.39230000
F 4.61970900 0.80649000 -0.85739500
F 3.43013100 1.19443300 -2.62149200
F 4.17216100 2.83601500 -1.44163400
F 2.67910800 2.27979600 0.59683100
F 1.43372000 2.18201400 -1.19746100
F 2.71018000 -0.23297100 0.94581300
F 2.25511800 -0.68354400 -1.12889600
F 0.35033600 -1.37030700 0.60298300
F -0.17913500 0.04019800 -0.96921800
H -0.66807500 -2.28482700 4.29495200
30
energy = -2625.4273201600004
C -0.11635500 0.07535400 0.09111700
C -0.57916400 -1.35525700 0.56635400
C -0.44244600 -2.54632400 -0.45108200
C 0.91712000 -2.91879600 -1.13447200
C 1.94150500 -3.67443200 -0.23603400
F 1.99053800 -3.13775000 0.97931500
F 1.58560200 -4.94894800 -0.14705700
S 3.68006600 -3.63741600 -0.96116600
O 4.47595500 -4.50006700 -0.14330300
O 3.54660200 -3.78613700 -2.38546200
O 4.11264100 -2.14714700 -0.60904500
F 0.61654600 -3.71633000 -2.15514300
F 1.49742900 -1.80295800 -1.62145400
F -0.84737000 -3.64153900 0.20782900
F -1.30070800 -2.28794800 -1.44284400
F -1.89250100 -1.28058800 0.80540600
F 0.03699400 -1.66005400 1.71166600
C 1.29063700 0.48602200 0.62144100
C 1.93714900 1.73585000 -0.06057500
C 2.40544500 1.61323900 -1.54965900
F 2.90084100 0.39389200 -1.79964600
F 1.40983700 1.84211000 -2.38173500
F 3.35944900 2.49960000 -1.76843900
F 3.02213000 2.02095400 0.66551900
F 1.07172700 2.75140800 0.01131200
F 1.15596500 0.79276100 1.91304200
F 2.14538200 -0.54265900 0.51171100
F -0.12856900 0.12982300 -1.24972800
F -0.98732500 0.96968000 0.55638900
H 3.74427300 -1.51601100 -1.25481600
30
energy = -2625.43220841
C -0.05854800 0.33118900 -0.28743500
C -0.80381200 0.96733600 0.92598400
C -2.34565200 0.69538600 1.04228600
C -3.21958600 1.12971000 -0.16715600
C -4.72346000 0.73831900 -0.00654900
F -4.86852500 -0.54021000 -0.31782100
F -5.13626000 0.95103400 1.23935800
S -5.87522300 1.75493800 -1.10882300
O -6.96982700 0.89847700 -1.44776200
O -6.02509400 3.04185000 -0.48485500
O -4.98279200 1.91939600 -2.42312300
F -3.11932600 2.46114600 -0.31683600
F -2.76477000 0.53119600 -1.27120300
F -2.55007400 -0.60829400 1.25203600
F -2.74215000 1.38460300 2.11679200
F -0.62990100 2.29176700 0.87921000
F -0.27503100 0.48994300 2.05874300
C 1.48226600 0.12401700 -0.12611100
C 2.36979900 1.35932100 0.21126300
C 2.39159700 2.52968200 -0.81340100
F 2.61341100 2.07765100 -2.03803500
F 1.24121000 3.18689000 -0.79225000
F 3.36382900 3.36290000 -0.47644500
F 3.62151800 0.90026900 0.31320700
F 1.98421300 1.85305000 1.39450000
F 1.68659300 -0.77506100 0.84081100
F 1.90927500 -0.38732600 -1.28713700
F -0.57073600 -0.88295200 -0.52106200
F -0.25128700 1.10564800 -1.36347400
H -4.48002700 2.75163800 -2.37318000
30
energy = -2625.4331045100002
C 0.05906700 -0.23709400 0.58689800
C -1.05753700 0.41155700 1.46561200
C -2.52011300 0.09993500 0.97164700
C -3.12024900 1.19992500 0.04051300
C -4.37457500 0.69207100 -0.73636100
F -3.98072200 -0.00340400 -1.79157000
F -5.12464500 -0.06816300 0.05831100
S -5.49972100 2.08752400 -1.33279500
O -6.10941000 1.62665400 -2.54218700
O -6.23692100 2.55473400 -0.18994900
O -4.42201400 3.19290800 -1.74178600
F -3.47086000 2.25196300 0.79907100
F -2.20746500 1.59318200 -0.84833000
F -2.53217000 -1.06840500 0.31419600
F -3.30217800 0.00418600 2.04583700
F -0.89945600 1.74228800 1.51311100
F -0.92958000 -0.08087200 2.69808700
C 1.50096300 0.32667100 0.86914900
C 1.92738500 1.47951300 -0.08807800
C 3.17550600 2.26369700 0.41316300
F 2.85633400 3.02344400 1.44886600
F 4.13298200 1.41805200 0.76918300
F 3.62096800 3.03497500 -0.56630700
F 0.92285400 2.35251400 -0.22590800
F 2.21970500 0.94947900 -1.27793500
F 1.56532600 0.75933100 2.13761000
F 2.36933100 -0.67305200 0.71172100
F 0.06855400 -1.54236900 0.86237500
F -0.22330500 -0.07079800 -0.71239700
H -4.26071100 3.78589700 -0.98671200
30
energy = -2625.4312536800003
C 0.20180800 0.29183000 0.19931000
C -0.69833000 0.90218000 1.32798000
C -0.49530300 2.40125200 1.67847400
C -1.59530500 3.01596300 2.61126800
C -1.85053400 2.27608200 3.95458600
F -2.62599400 1.22499900 3.72996000
F -0.69619300 1.89324500 4.49353600
S -2.68822800 3.36176200 5.25977500
O -3.54265600 2.49738900 6.01446300
O -1.66035100 4.18240300 5.84018800
O -3.63430700 4.27607200 4.35604500
F -1.18414600 4.26817900 2.89337600
F -2.73962500 3.08583600 1.93402200
F 0.69132500 2.56495600 2.26723500
F -0.53781400 3.11686700 0.54861600
F -0.52538300 0.17408100 2.43685400
F -1.96168200 0.75822600 0.90500700
C 1.75827500 0.23522900 0.45335900
C 2.56109700 1.34991000 -0.27972400
C 4.03927700 1.46629700 0.19551000
F 4.09191000 1.96067900 1.42166900
F 4.62130900 0.27541900 0.17789700
F 4.68808800 2.27813100 -0.62499900
F 1.97348200 2.53586600 -0.07611700
F 2.56660100 1.07520700 -1.58589200
F 2.00436600 0.30957700 1.76898500
F 2.20311600 -0.93785800 0.00012700
F -0.22442300 -0.96807600 0.07203600
F -0.04103300 0.94417500 -0.94368200
H -3.15067400 5.07542600 4.08126800
30
energy = -2625.4318735400007
C -0.12412200 0.05298600 0.27244100
C -0.57568400 -1.44607300 0.17687500
C -0.47788300 -2.09204800 -1.23906500
C -1.29283700 -3.41296300 -1.37279000
C -1.01431000 -4.23542400 -2.67304300
F -1.89008000 -5.23482500 -2.68281800
F -1.21851600 -3.44566800 -3.72505500
S 0.67753100 -5.05733200 -2.86563200
O 1.24170200 -5.23928900 -1.55506000
O 0.47463000 -6.12242200 -3.79862200
O 1.48588500 -3.92280600 -3.63700400
F -1.07575800 -4.18187600 -0.30662000
F -2.58833400 -3.08232000 -1.42392700
F -0.90689000 -1.23321600 -2.16300700
F 0.82906000 -2.36041800 -1.46717600
F -1.85663800 -1.47128900 0.56422700
F 0.15611600 -2.16700900 1.02595200
C 1.30819100 0.36183700 -0.25493400
C 1.85265500 1.77766000 0.15738000
C 2.76602300 1.77376800 1.41868700
F 2.18995500 1.11957900 2.41626000
F 3.92528600 1.20166600 1.13356600
F 2.98197600 3.02581400 1.79038500
F 0.82439400 2.60362600 0.37998000
F 2.57922800 2.25313900 -0.85647600
F 2.15717500 -0.57763000 0.18791500
F 1.26569400 0.30475100 -1.59098500
F -0.99622500 0.79787600 -0.40999000
F -0.18875100 0.37105300 1.57029700
H 1.89405700 -3.31591100 -2.99560500
30
energy = -2625.4270031000005
C 0.06221600 0.09644900 0.02367400
C -0.58683700 0.89347300 1.19257500
C -2.14027100 0.73370200 1.27058100
C -2.76404200 1.32716000 2.59526400
C -3.16854200 0.30656500 3.70723200
F -3.68230300 1.02400600 4.71319800
F -4.09820600 -0.51579000 3.23760200
S -1.80397000 -0.72226800 4.47594500
O -1.41174100 -1.72594300 3.53491300
O -0.89084500 0.18817900 5.11325100
O -2.67893200 -1.44413700 5.59957200
F -1.93685300 2.22759500 3.13327700
F -3.90639600 1.93670000 2.26120200
F -2.65911600 1.40371900 0.23979400
F -2.48533700 -0.55278500 1.16679600
F -0.33933900 2.19710000 1.01815400
F -0.04029000 0.48329500 2.34310500
C 1.62115800 0.18768200 -0.12868600
C 2.26143900 1.59536400 -0.40940400
C 2.90310100 2.26526900 0.84350800
F 2.08677700 2.21656800 1.88756800
F 4.03141500 1.64524000 1.14971600
F 3.16734400 3.53238800 0.56403600
F 1.34628500 2.42167400 -0.92668900
F 3.24250900 1.43600400 -1.30163400
F 2.18295400 -0.33608600 0.96872400
F 1.90533800 -0.59706100 -1.17280500
F -0.19310100 -1.20208700 0.21266300
F -0.49895400 0.49329700 -1.12418000
H -2.65098900 -0.92250100 6.42045600
30
energy = -2625.42799743
C 0.16204900 -0.15487800 0.23000500
C -0.65730500 0.69815600 1.26223000
C -0.52211700 0.29638600 2.76137600
C -1.31066700 1.24458800 3.75200600
C -0.42748100 2.34493400 4.40713600
F 0.37066200 1.79464400 5.31257200
F 0.29705800 2.98131800 3.48895900
S -1.47877100 3.64486600 5.27081200
O -1.98189200 4.55108800 4.27319600
O -2.30510400 2.96175100 6.21919700
O -0.31455800 4.38510200 6.07808600
F -2.32131500 1.84506500 3.11055900
F -1.80140500 0.48897700 4.73074800
F -1.00856200 -0.93461500 2.90826200
F 0.77179400 0.29996600 3.11439600
F -1.93888900 0.51803400 0.92438100
F -0.34485300 1.99237300 1.12719100
C 1.71413100 -0.00677300 0.07101800
C 2.27959500 1.39958400 -0.35499300
C 2.95038300 2.18945200 0.80528200
F 2.15797000 2.21994400 1.87023800
F 4.09890200 1.62235900 1.13565100
F 3.17966900 3.43090500 0.40727200
F 1.30446200 2.15306100 -0.87390000
F 3.21592000 1.21024300 -1.28690900
F 2.31746700 -0.40297500 1.19907800
F 2.02972700 -0.87222500 -0.89797100
F -0.04848800 -1.44456100 0.52788800
F -0.36935300 0.10220700 -0.97040700
H -0.06479400 5.19835800 5.60613000
30
energy = -2625.4311687599998
C 0.08060500 -0.10629400 -0.07683700
C -0.64735400 -1.44356400 0.27258400
C -2.20158100 -1.33976200 0.09296100
C -2.90003300 -2.73759900 -0.04243300
C -2.95870600 -3.33144500 -1.49650200
F -1.99982200 -2.81870100 -2.27253800
F -2.81049500 -4.64618600 -1.42999900
S -4.59594300 -2.98707300 -2.35482300
O -5.56007200 -3.92435200 -1.86831200
O -4.78485500 -1.56059200 -2.35677700
O -4.18835200 -3.45430400 -3.82666700
F -2.25926700 -3.60905600 0.74236300
F -4.15582600 -2.61108300 0.40141800
F -2.69325300 -0.75277100 1.18510700
F -2.50141600 -0.59012900 -0.97264500
F -0.41172100 -1.77479200 1.54368100
F -0.16091000 -2.40277200 -0.52644900
C 1.59243000 -0.08056400 0.30817200
C 2.28328400 1.31525600 0.06649300
C 2.41465200 2.19263300 1.34610900
F 1.24751700 2.28955700 1.96680300
F 3.30878300 1.67129500 2.17073200
F 2.81437300 3.40428900 0.99020200
F 1.59687000 2.01676400 -0.84315000
F 3.51560100 1.09420600 -0.39579300
F 1.74460000 -0.40662400 1.59849600
F 2.20875800 -0.99616400 -0.44350000
F -0.00098900 0.06326300 -1.40069200
F -0.54914100 0.89447000 0.55068600
H -3.83660500 -2.69743900 -4.32639400
30
energy = -2625.4251870999997
C -0.21453300 0.64791100 -0.29697100
C -1.17897000 1.37257200 0.72473300
C -2.67957600 0.91946500 0.64807400
C -2.96494400 -0.59292600 1.00068600
C -4.12729000 -0.86036000 2.01382900
F -5.16144000 -0.05629200 1.76300700
F -4.51409800 -2.12034900 1.87047600
S -3.60292100 -0.64644100 3.81240500
O -3.17703600 -1.92317500 4.29523900
O -2.79803400 0.54439000 3.88767600
O -5.03053500 -0.35256900 4.46212600
F -3.29308400 -1.23401600 -0.12005700
F -1.85525300 -1.15341800 1.51018500
F -3.33695000 1.71930200 1.49827100
F -3.12542000 1.16625100 -0.58546300
F -1.19790600 2.67532400 0.43202600
F -0.75161100 1.22036800 1.98014500
C 1.07726000 -0.04637600 0.26788300
C 2.33200300 0.83263500 0.57173100
C 2.18312700 1.93129400 1.65020600
F 1.27800500 2.82085500 1.24974300
F 1.80575000 1.40628800 2.80295600
F 3.34317200 2.54628200 1.80994600
F 2.73008800 1.42044500 -0.56040200
F 3.28444300 -0.01017200 0.98804100
F 0.77665000 -0.75465300 1.35858200
F 1.47719900 -0.88916700 -0.69509500
F -0.91935700 -0.33210800 -0.89183700
F 0.15838200 1.52141200 -1.23296800
H -5.21456300 0.60256800 4.44393000
30
energy = -2625.4336592199998
C 0.04546900 0.29671300 -0.33718100
C -0.64538900 0.90455400 0.91560600
C -2.19753800 0.71099800 1.03816400
C -3.05220200 1.19987800 -0.16718000
C -4.58503600 0.98534900 0.04175200
F -4.85383900 -0.31064600 -0.09101500
F -4.96618300 1.40348600 1.24408200
S -5.67644000 1.91220800 -1.18354200
O -6.94188900 1.22833800 -1.18239800
O -5.52861700 3.31189200 -0.92825100
O -4.92443900 1.58904000 -2.55520900
F -2.80137700 2.49233100 -0.37792800
F -2.70025000 0.48660800 -1.24472500
F -2.45561000 -0.58616900 1.23265200
F -2.55301400 1.40005000 2.12752800
F -0.38329100 2.21498100 0.94013600
F -0.12934600 0.32969500 2.00999200
C 1.59520700 0.10141200 -0.22127000
C 2.40840300 1.36601600 0.17618600
C 3.93901800 1.22157200 -0.07223200
F 4.37786700 0.07492200 0.42920600
F 4.20123200 1.26017800 -1.36839000
F 4.56628100 2.22316700 0.52465400
F 2.22095200 1.59825400 1.47974000
F 1.97442900 2.41596100 -0.52910800
F 1.84012400 -0.86537200 0.66530100
F 2.00754800 -0.30099900 -1.43222400
F -0.47016800 -0.91743800 -0.56984900
F -0.19371900 1.08921200 -1.38595100
H -5.34039600 0.82073100 -2.98381100
30
energy = -2625.4285889099997
C 0.03934800 0.00724400 -0.18094000
C -0.46791600 -1.45931400 0.02442000
C -0.17435900 -2.23701300 1.35900300
C -0.59783800 -1.55155800 2.70735000
C 0.51226200 -0.69599600 3.42470100
F 1.45708700 -0.28451800 2.57097300
F -0.05452000 0.35856100 3.98875000
S 1.40088500 -1.66548100 4.76998300
O 0.57749000 -1.67167600 5.93901200
O 1.93734300 -2.84817200 4.15041700
O 2.59424900 -0.64061900 5.04441400
F -1.66279600 -0.77660200 2.48915400
F -0.95632900 -2.52258200 3.55659700
F -0.90449400 -3.35317800 1.25238400
F 1.11247200 -2.58197900 1.41694000
F 0.04435600 -2.20602200 -0.96349500
F -1.79712800 -1.41688500 -0.10660000
C 1.53510400 0.14164400 -0.59757600
C 2.15190500 1.56306900 -0.41065100
C 1.40449400 2.73433900 -1.10558300
F 1.16529200 2.43600000 -2.37402600
F 0.25555100 2.97617800 -0.49024900
F 2.15875300 3.82014000 -1.04779400
F 3.38640200 1.50960400 -0.92265100
F 2.23134400 1.82623500 0.89788000
F 2.28261100 -0.69203000 0.13698200
F 1.64251800 -0.19993300 -1.88280600
F -0.68334900 0.53285200 -1.17622500
F -0.19991500 0.71579900 0.93349800
H 3.34875800 -0.85168300 4.46775800
30
energy = -2625.4261029500003
C -0.17284400 0.29887000 0.19979600
C -0.79524700 -1.13564500 0.26481100
C -2.32481100 -1.16955400 -0.05345100
C -2.84271200 -0.94604900 -1.53792500
C -1.96868600 -1.30836400 -2.78611700
F -2.58968300 -0.78693600 -3.84125800
F -0.75558900 -0.78091300 -2.69450000
S -1.81114500 -3.15159600 -3.17679700
O -2.98040600 -3.52112400 -3.92703700
O -0.47015400 -3.35907800 -3.63008200
O -1.92464200 -3.79036200 -1.71829300
F -3.97695200 -1.66193600 -1.65164400
F -3.14414400 0.34554800 -1.66860400
F -2.76987300 -2.36143400 0.36223300
F -2.90431700 -0.22498900 0.69846000
F -0.65498300 -1.58234700 1.51459400
F -0.15241800 -1.97109800 -0.55976600
C 1.36645600 0.26511400 -0.03561500
C 2.08362900 1.63572200 0.23871800
C 2.70283500 1.76864300 1.66061700
F 1.82084200 1.43765000 2.59271200
F 3.76363400 0.98429200 1.76630700
F 3.07537100 3.02576800 1.84704200
F 1.20909500 2.63435100 0.06164900
F 3.07780900 1.76968300 -0.64070600
F 1.89767000 -0.67595700 0.76101600
F 1.57404800 -0.06846300 -1.30909800
F -0.74134700 0.97944600 -0.80444300
F -0.44298100 0.91861300 1.35030300
H -2.84643000 -4.04951600 -1.54278200
30
energy = -2625.4282398
C 0.32256600 -0.31252000 0.27775300
C -0.13062600 -1.77451500 -0.05153000
C -0.31596400 -2.25219500 -1.53732500
C -1.23856400 -1.38573500 -2.46578900
C -0.52863700 -0.21858500 -3.26013600
F -1.27089900 0.87624300 -3.16117500
F 0.68721800 0.02631000 -2.77832000
S -0.31827200 -0.53669900 -5.10574900
O -1.62871100 -0.61227200 -5.69191700
O 0.69635400 0.37123900 -5.54474700
O 0.33687700 -1.99242300 -5.07811100
F -1.77943500 -2.23314600 -3.36375100
F -2.23055200 -0.87734200 -1.73790800
F 0.86450400 -2.43999100 -2.12866400
F -0.91423000 -3.44683800 -1.42380300
F -1.31669400 -1.94099900 0.54208700
F 0.75768300 -2.60998900 0.50411800
C 1.86068800 -0.06265400 0.15771700
C 2.20818100 1.44986400 0.02182200
C 3.70345200 1.77025700 0.31304100
F 3.95681300 1.65239000 1.60630700
F 4.48536300 0.94010400 -0.36422600
F 3.95889000 3.01262400 -0.06503900
F 1.45863600 2.14776900 0.88430400
F 1.93343800 1.83829000 -1.22458200
F 2.44421000 -0.54867100 1.25829300
F 2.33903000 -0.70854000 -0.90999600
F -0.34983000 0.54415100 -0.51074400
F -0.02278500 -0.07856700 1.54435500
H -0.36218900 -2.66425500 -5.16125300
30
energy = -2625.43292566
C -0.05648900 0.34825200 0.37540200
C -0.78231600 -1.03185800 0.25577100
C -2.31996500 -0.91037900 0.50588100
C -2.98367100 -2.27853700 0.83437300
C -4.54473100 -2.28313900 0.80426400
F -4.93228100 -3.47514200 1.24579200
F -5.00213100 -1.33385200 1.62375700
S -5.41499100 -2.06743400 -0.85886700
O -4.51270500 -2.43290500 -1.90774600
O -6.71252300 -2.66191700 -0.67904700
O -5.59317800 -0.48242300 -0.90154600
F -2.53320200 -3.20645900 -0.01160000
F -2.64570300 -2.61807700 2.08413300
F -2.53567200 -0.07936800 1.53252300
F -2.88842600 -0.40980400 -0.59573800
F -0.25532400 -1.86399400 1.16012300
F -0.59395900 -1.52875200 -0.96908000
C 1.33800900 0.34742400 -0.32667200
C 2.26089000 1.54959200 0.08466800
C 3.25502100 1.24378100 1.24291100
F 2.63023800 0.69733800 2.27563600
F 4.20020800 0.41873900 0.82062800
F 3.81589300 2.37938000 1.63096500
F 1.49674600 2.58966600 0.44181600
F 2.99157400 1.89495000 -0.97792900
F 1.96661100 -0.80368600 -0.04052600
F 1.13325700 0.41730100 -1.64210300
F -0.81312900 1.29032400 -0.19815600
F 0.09184700 0.62680100 1.67371300
H -6.46265100 -0.24565100 -0.53469300
30
energy = -2625.42822426
C 0.23490200 -0.05047000 -0.05259900
C -0.46657800 0.87585100 0.99613800
C -0.31733600 0.48159500 2.49180200
C -1.02244900 1.40809700 3.54444100
C -2.59692700 1.47495600 3.53499300
F -3.10783400 0.46581400 2.84141100
F -3.02585100 1.40260100 4.79068300
S -3.32849100 3.08960000 2.88240300
O -4.64196900 2.76813900 2.41556000
O -3.04969200 4.09237900 3.87411500
O -2.43353000 3.37282300 1.59306300
F -0.64825500 0.93102400 4.73058800
F -0.52148400 2.65195400 3.41311200
F -0.75963300 -0.76421600 2.67123300
F 0.98528200 0.53678000 2.79905400
F -1.76450400 0.85401600 0.68041300
F 0.00515900 2.12382800 0.83502400
C 1.79329000 -0.18666800 -0.06415900
C 2.60590100 1.13921400 -0.13043300
C 4.08004200 0.93231700 -0.59115100
F 4.62903100 -0.07281700 0.07755800
F 4.12883700 0.67514800 -1.88719100
F 4.76336900 2.03982600 -0.34586700
F 2.63114700 1.69231200 1.08616100
F 2.01955600 1.98078800 -0.98909800
F 2.17501400 -0.87941800 1.01106600
F 2.07976800 -0.90196400 -1.16229200
F -0.25074000 -1.28699500 0.10090000
F -0.13386800 0.41757000 -1.24940300
H -1.66106000 3.91011100 1.84220100
30
energy = -2625.43149347
C 0.37729700 0.72718200 -0.28916500
C -0.37691100 1.69825600 0.69388600
C -1.70924600 1.10309400 1.25031500
C -2.29354800 1.78098500 2.53031200
C -2.59175200 3.30914800 2.49770900
F -3.06468200 3.63299400 3.69781600
F -1.46310200 3.98457000 2.27025100
S -3.86298600 3.89138500 1.24483000
O -3.24015000 3.92347000 -0.05124700
O -5.08814500 3.20874300 1.52703300
O -4.00877600 5.39448600 1.76667300
F -3.43886200 1.15071900 2.80098500
F -1.43950500 1.58630700 3.54120100
F -2.63955200 1.16733100 0.29369000
F -1.50826500 -0.17885400 1.58199700
F -0.67654100 2.80415000 0.01186600
F 0.42626700 2.02675300 1.71503800
C 1.43494200 -0.23398300 0.36753900
C 2.87718400 0.35979600 0.41374400
C 3.82018400 -0.39681500 1.39515700
F 3.49952000 -0.12000900 2.64893100
F 3.73008800 -1.70546600 1.19856200
F 5.06793300 -0.01184400 1.17516300
F 2.83285800 1.64155300 0.79652500
F 3.40598600 0.28129300 -0.80935400
F 1.05581200 -0.55673600 1.61211200
F 1.47923500 -1.34663400 -0.36786600
F -0.53313700 -0.02224000 -0.91950500
F 1.00948500 1.47544700 -1.20085600
H -3.46388300 5.98055700 1.21327500
30
energy = -2625.42230399
C 0.49892900 0.25936100 0.00760600
C -0.21709900 0.49865300 -1.36794200
C -0.13411700 1.92660600 -1.98253100
C -1.01141200 2.17599200 -3.26057300
C -2.57854600 2.27102600 -3.06927000
F -2.91138500 2.24541700 -1.78512600
F -2.99909900 3.41305100 -3.60235600
S -3.57049800 0.93928700 -3.96546900
O -4.85823800 0.92202500 -3.34255300
O -3.36129600 1.15168100 -5.37215300
O -2.82534900 -0.39799400 -3.51945700
F -0.59488300 3.33718000 -3.75834200
F -0.72340000 1.20814500 -4.15525400
F -0.46540500 2.83689400 -1.06293800
F 1.12780000 2.13584100 -2.37362700
F -1.50657300 0.21529800 -1.14454400
F 0.26606300 -0.38000600 -2.25498100
C 2.06375700 0.40753400 0.06490200
C 2.57137500 1.73968300 0.70145200
C 2.26937100 1.94271900 2.23752700
F 1.31247900 2.84003300 2.39736600
F 1.88582000 0.80327000 2.80192000
F 3.36122400 2.37135200 2.84803000
F 2.03456300 2.76038800 0.02314100
F 3.89502200 1.75106100 0.52995900
F 2.56817400 -0.61020400 0.76368700
F 2.56426000 0.34878600 -1.17595000
F -0.05090800 1.08611800 0.91068100
F 0.19641500 -0.99784300 0.33712400
H -2.10189100 -0.59211500 -4.14093400
30
energy = -2625.42589847
C 0.05590700 0.10207900 -0.30150600
C -0.20457700 0.37265800 -1.82435100
C 0.35436800 -0.72720400 -2.82333400
C 1.43151300 -0.28942600 -3.89258200
C 0.92567500 0.21595600 -5.28465300
F 2.01382400 0.53528700 -5.99121800
F 0.26958200 -0.75920700 -5.90245200
S -0.18712200 1.71209900 -5.33525400
O -0.37507500 2.03961600 -6.72190800
O -1.26359400 1.46686200 -4.42261500
O 0.77070900 2.80171700 -4.67194700
F 2.27272900 0.62262400 -3.40417900
F 2.12995200 -1.39564300 -4.18615700
F 0.92711900 -1.69952800 -2.09689200
F -0.67170200 -1.25958400 -3.49007100
F 0.29492600 1.58061700 -2.11606800
F -1.52937900 0.40366900 -1.94596900
C 1.55326000 0.22368000 0.16917200
C 1.89595600 1.57890700 0.85687700
C 3.42453100 1.80615000 1.06003800
F 3.98437600 0.74077500 1.61649900
F 4.01400700 2.05162600 -0.09971400
F 3.59662700 2.84963700 1.85738100
F 1.31568400 1.60423200 2.05926600
F 1.43817100 2.58943500 0.11025700
F 1.80314400 -0.75706100 1.03630500
F 2.36609700 0.08245900 -0.89327300
F -0.67913200 1.00173400 0.36822400
F -0.40286200 -1.11231400 0.00285500
H 1.24814600 3.28591100 -5.36832700
30
energy = -2625.4270136400005
C 0.49117000 0.28343500 -0.04077700
C -0.55491400 0.84442200 0.98688800
C -0.32521700 2.28592800 1.50732000
C -1.43509000 2.89103900 2.43503600
C -1.70040100 2.18888100 3.81483200
F -0.64221300 1.49262500 4.21262000
F -1.96200800 3.13228800 4.72186100
S -3.18864800 1.03438800 3.86741700
O -3.27312700 0.29587100 2.64510300
O -3.14295200 0.42169600 5.16793600
O -4.35898100 2.12011500 3.84569900
F -1.01310900 4.13179200 2.70715600
F -2.58256500 2.96858100 1.75643200
F 0.83492000 2.34131100 2.17464300
F -0.26585200 3.09993900 0.44678300
F -0.60352000 0.00728000 2.02932300
F -1.72764600 0.83167800 0.34628900
C 1.98447400 0.13190900 0.43784400
C 2.95501000 1.30159600 0.04700700
C 3.67136800 1.10048700 -1.32295100
F 4.61217100 0.17659300 -1.21468700
F 2.80520000 0.73287300 -2.25730600
F 4.23237700 2.24499900 -1.68287900
F 3.90187300 1.38078100 0.98468400
F 2.29158600 2.46300400 0.00435500
F 2.00348700 -0.00659100 1.76690400
F 2.47443100 -0.99056800 -0.10545500
F 0.05101900 -0.94492700 -0.33156000
F 0.43884200 1.02948500 -1.14964800
H -4.59724700 2.36387200 4.75704400
30
energy = -2625.43063306
C 0.13772900 0.04852200 -0.25120500
C -0.57540600 -1.22368500 0.30109800
C -2.14323100 -1.20596800 0.08968200
C -2.96031800 -0.86474500 1.37935100
C -3.05101900 -2.03639100 2.43126900
F -2.18191900 -3.00703600 2.13777800
F -2.78833200 -1.56095900 3.64065800
S -4.73175700 -2.86938500 2.55029400
O -4.51380100 -4.10644200 3.25185500
O -5.69279900 -1.89138400 2.95830100
O -4.97193000 -3.20497400 1.00545900
F -2.40773200 0.20150000 1.96105200
F -4.19282100 -0.53635200 0.98134000
F -2.46750500 -0.28253600 -0.82112800
F -2.53374200 -2.40017300 -0.36627100
F -0.32006700 -1.33479600 1.61334800
F -0.06920500 -2.28478200 -0.32926400
C 1.68151100 0.07582500 -0.00177300
C 2.31290300 1.47277000 -0.30204500
C 3.85839600 1.41734600 -0.48585500
F 4.41100700 0.72565800 0.50197400
F 4.16512000 0.85031400 -1.64141300
F 4.33812900 2.65128400 -0.47087400
F 2.04612000 2.28413000 0.72417200
F 1.78429600 1.98275500 -1.41984700
F 1.95225200 -0.22545700 1.27085200
F 2.24355100 -0.84115800 -0.79959700
F -0.04948700 0.08764900 -1.57388000
F -0.41314800 1.12465800 0.32424200
H -4.74685900 -4.13747700 0.84215100
30
energy = -2625.4320648300004
C 0.11711000 -0.11960300 0.29460200
C -0.43594200 -1.57392200 0.48319400
C -0.29119200 -2.53215500 -0.72857500
C -1.08664200 -3.87690100 -0.61305500
C -2.64470600 -3.78819200 -0.52135900
F -3.00548000 -3.69102200 0.74909800
F -3.09497000 -2.74220400 -1.20881800
S -3.51878900 -5.30136900 -1.24028800
O -4.75500900 -5.42396600 -0.53076900
O -3.42390900 -5.21498200 -2.67224700
O -2.56297000 -6.47035200 -0.71945200
F -0.76413100 -4.57557800 -1.72008800
F -0.64052200 -4.53828900 0.45462500
F -0.66447300 -1.90194400 -1.84400700
F 0.99677100 -2.88569500 -0.82592300
F -1.74349300 -1.42920000 0.74865600
F 0.16590100 -2.12742200 1.53679000
C 1.59287700 -0.00308000 -0.16510200
C 2.19597700 1.43918400 -0.18238300
C 2.23304200 2.22825600 1.16290600
F 1.06703500 2.81376600 1.38438900
F 2.51940800 1.41957600 2.17373700
F 3.16740300 3.16271000 1.08138400
F 1.51500900 2.16781600 -1.07172900
F 3.45841500 1.29599500 -0.60035500
F 2.35102000 -0.77975100 0.61520400
F 1.66515900 -0.44023500 -1.43024000
F -0.65846700 0.52083200 -0.58144800
F 0.00086600 0.46099500 1.49818900
H -1.88148000 -6.65557300 -1.38958500
30
energy = -2625.4305663100004
C 0.17149800 -0.16866700 -0.45277500
C -0.73261000 0.85347500 -1.21242100
C -2.22513000 0.81835500 -0.72166500
C -3.33023500 1.12147800 -1.79247100
C -3.29678900 2.50604800 -2.52109500
F -2.03975500 2.94947100 -2.63061900
F -3.81655900 2.36208500 -3.73172500
S -4.28061600 3.84890500 -1.65183500
O -5.66814100 3.62427000 -1.91260300
O -3.72055500 4.00857600 -0.33629300
O -3.82319600 5.08267200 -2.55760000
F -3.26924500 0.16851900 -2.72386300
F -4.50537400 1.02501700 -1.15484900
F -2.50731700 -0.42185800 -0.29390800
F -2.35550800 1.66907500 0.29288000
F -0.68247800 0.56598500 -2.51884300
F -0.24694600 2.08186700 -1.01084800
C 1.71531100 0.07275000 -0.66288400
C 2.39115500 0.91408600 0.46265600
C 3.80940900 1.42885900 0.07738700
F 4.54224100 0.43568800 -0.40738500
F 3.72043500 2.38891900 -0.82992100
F 4.39898100 1.91313000 1.15954800
F 2.51324800 0.14121100 1.54506100
F 1.63988600 1.97937000 0.75945900
F 2.31550500 -1.11837400 -0.68749900
F 1.91182300 0.67743000 -1.84487800
F -0.10215100 -0.10420800 0.85836900
F -0.11393800 -1.39013700 -0.90356300
H -3.04624900 5.51219500 -2.15979000
30
energy = -2625.4326703900006
C 0.01204200 -0.05195400 -0.02925700
C -0.58852500 -1.49518600 0.05834700
C -0.41288800 -2.36504900 1.35245300
C -0.73709700 -1.65932200 2.70090500
C -0.92402200 -2.67332500 3.87045500
F -2.12496000 -3.22857000 3.78856600
F 0.01438100 -3.61895600 3.82767000
S -0.78413400 -1.82716900 5.54391400
O 0.61149600 -1.64315100 5.84057600
O -1.75192600 -0.77250000 5.56303500
O -1.33729100 -3.01749900 6.45548500
F 0.26761700 -0.83009800 3.00952200
F -1.87062100 -0.97002000 2.57066700
F -1.26798100 -3.39135800 1.21937100
F 0.82820600 -2.84870900 1.39458500
F -0.06960900 -2.21304700 -0.94566400
F -1.90325600 -1.35139300 -0.13715500
C 1.56482200 0.05170400 -0.02314200
C 2.10488700 1.52508900 0.08370300
C 2.47227600 1.96605400 1.53173800
F 1.48613300 1.68760200 2.37145700
F 3.57262800 1.34649600 1.92849500
F 2.68805000 3.27275400 1.53672200
F 1.19312700 2.37831500 -0.39690500
F 3.21306600 1.61446500 -0.65481100
F 2.05539600 -0.65383700 1.00761000
F 2.01195500 -0.48137000 -1.16066000
F -0.41633200 0.44088100 -1.19667300
F -0.49392100 0.68319800 0.96754700
H -0.58705800 -3.48550600 6.86139200
30
energy = -2625.4254728600004
C 0.00725700 0.64132900 -0.39099400
C -0.71687200 1.11995000 0.93593400
C -0.34108500 0.53908800 2.34378600
C -0.62760000 -0.99698800 2.54242000
C -1.82014600 -1.40050400 3.47328400
F -1.79609000 -2.72908600 3.53895800
F -1.61588300 -0.89040000 4.68466200
S -3.57603000 -0.93676200 2.97312100
O -4.42693400 -1.79765100 3.73493700
O -3.68337000 0.49630400 2.98269400
O -3.60813200 -1.46030500 1.46958400
F -0.83236400 -1.55952100 1.33958600
F 0.45346400 -1.54937500 3.09258500
F 0.95311100 0.77660500 2.56484000
F -1.04836600 1.24009700 3.23289900
F -2.03427700 0.87256700 0.74168700
F -0.55725000 2.43585900 1.03447100
C 1.49616400 0.17000100 -0.34492700
C 2.53037500 1.32292100 -0.16448500
C 3.91423400 0.83047000 0.34540000
F 3.83336900 0.47616100 1.61740400
F 4.31315000 -0.20819900 -0.37711800
F 4.79539100 1.80951000 0.22339000
F 2.05665600 2.21998500 0.70973100
F 2.70440200 1.91634200 -1.34584100
F 1.63981500 -0.74166500 0.63037400
F 1.74888100 -0.42104200 -1.51374600
F -0.69516400 -0.37423500 -0.90145000
F -0.05804200 1.66887600 -1.24763200
H -3.29555600 -0.76037300 0.86739300
30
energy = -2625.42656737
C 0.16449600 0.03477200 -0.31944500
C -0.45219500 1.02310700 -1.36208200
C 0.04939900 2.50483200 -1.31406400
C -0.30277900 3.33294600 -0.02416800
C -0.59065500 4.85487400 -0.24076200
F -1.64331700 5.01177200 -1.03264900
F -0.86736100 5.36699800 0.96332400
S 0.79197400 5.90951300 -0.93871700
O 1.40643100 5.20036700 -2.01947500
O 0.24767900 7.23480400 -1.05757000
O 1.81328700 5.87391300 0.28621200
F -1.41584400 2.85105500 0.54425100
F 0.70539300 3.23069500 0.84314300
F 1.37725300 2.48966200 -1.45044700
F -0.50248000 3.10900500 -2.37294800
F -1.77614000 1.01310200 -1.17715500
F -0.20438900 0.56461200 -2.59328100
C 1.66560300 -0.43630400 -0.55159600
C 2.65012900 0.04038100 0.55548300
C 4.14213500 -0.30453900 0.26604800
F 4.28093100 -1.59492400 -0.00198900
F 4.59139400 0.40423200 -0.75671700
F 4.85726300 -0.00866700 1.34172300
F 2.31025900 -0.54936900 1.70614400
F 2.56776100 1.36867800 0.68426500
F 1.67490900 -1.77088600 -0.55403400
F 2.12429400 -0.00512100 -1.73239700
F 0.05163200 0.60467300 0.89367000
F -0.60439500 -1.05414500 -0.34521600
H 1.62990900 6.61280400 0.89231100
30
energy = -2625.42970568
C 0.24980200 0.13835700 -0.15009200
C -0.46911800 -1.20711100 0.21510700
C -0.24241000 -2.38444000 -0.77097900
C -0.96896400 -3.73721600 -0.45288900
C -2.54335300 -3.75988200 -0.50143800
F -3.00933600 -2.69507100 -1.14153800
F -2.92621700 -4.85781600 -1.14467700
S -3.39861500 -3.88167300 1.17823300
O -4.70530600 -3.32787700 0.99762500
O -3.14839500 -5.21111600 1.66557900
O -2.57107200 -2.84232400 2.06022200
F -0.52650000 -4.59459300 -1.37164900
F -0.55209800 -4.16097400 0.75585100
F -0.58471600 -1.99953600 -2.00228500
F 1.06526600 -2.68169500 -0.74786000
F -1.77310800 -0.91567000 0.25141500
F -0.06907100 -1.59012200 1.43555800
C 1.79963000 0.08972800 -0.31453000
C 2.45385700 1.49845200 -0.17176200
C 3.89819300 1.56655100 -0.74988800
F 4.61255800 0.54073500 -0.30455900
F 3.87032400 1.53893900 -2.07208900
F 4.46745800 2.69428400 -0.35452300
F 2.51240400 1.81389900 1.12361500
F 1.70399800 2.39793100 -0.81896300
F 2.32445900 -0.71368500 0.61587600
F 2.07889000 -0.39141800 -1.53284200
F -0.28372200 0.59795200 -1.28292600
F -0.03964100 0.98094000 0.85120300
H -1.83720700 -3.29992300 2.50639300
30
energy = -2625.4293188700003
C 0.36963000 0.11536200 0.23381700
C -0.12935500 -1.37046300 0.17963400
C 0.08049700 -2.25291800 1.47103100
C 1.28974700 -3.24309600 1.40643200
C 1.02203500 -4.56909800 0.60492400
F 0.01754100 -4.42406100 -0.25493700
F 2.12423400 -4.90282900 -0.06109000
S 0.60610600 -6.02278100 1.72139800
O 1.81932700 -6.44969900 2.36538400
O -0.60256100 -5.70221100 2.41730300
O 0.24398000 -7.08312600 0.58153900
F 2.33816500 -2.61942000 0.86181500
F 1.60215400 -3.57283900 2.66512100
F 0.28125200 -1.45295000 2.52375600
F -1.02625000 -2.96361300 1.68867000
F 0.43625400 -1.96777100 -0.87858300
F -1.44501100 -1.28517100 -0.03207200
C 1.89693700 0.35476700 0.37877000
C 2.37205000 1.82886700 0.15203200
C 1.66009500 2.93325500 0.98044600
F 0.44991400 3.16124600 0.49048400
F 1.56003400 2.56699700 2.25040800
F 2.36764000 4.04954500 0.90640200
F 2.24044100 2.13022500 -1.14186700
F 3.66948900 1.85040100 0.47857600
F 2.28757300 -0.02534200 1.59909300
F 2.53596000 -0.37888500 -0.54130900
F -0.01309200 0.67077900 -0.92454700
F -0.26291200 0.72782400 1.24100200
H 1.01234800 -7.65873100 0.42399900
30
energy = -2625.42945916
C 0.10264400 0.28234000 0.04578500
C -0.35561300 1.04812700 1.33871900
C -0.17328000 2.60282300 1.40919200
C -1.12267900 3.24814100 2.47708400
C -0.62071000 4.66193500 2.90975500
F 0.36756300 4.52433800 3.78706100
F -0.19587400 5.34221200 1.84797400
S -1.94149500 5.73295900 3.71952000
O -1.24464300 6.68178600 4.54652000
O -2.88471800 6.10338900 2.70985200
O -2.63645500 4.64961200 4.66743700
F -2.34705000 3.35380700 1.96329600
F -1.15302200 2.47107500 3.56537400
F 1.08770900 2.87853900 1.76449300
F -0.43682200 3.16160700 0.22903600
F 0.28027200 0.50655600 2.38382600
F -1.67145200 0.81294000 1.44848100
C 1.61336900 -0.09598600 -0.12609100
C 2.64007900 1.07308700 -0.11930100
C 3.92723800 0.77398700 -0.94179700
F 4.39614800 -0.42386000 -0.61814100
F 3.67180100 0.81264800 -2.23838200
F 4.84124000 1.68820200 -0.65541900
F 3.00847700 1.30749500 1.14215300
F 2.06165800 2.17016200 -0.63045700
F 1.94954700 -0.96350100 0.82871200
F 1.68473200 -0.70975900 -1.31800500
F -0.53039000 -0.89862900 0.09615700
F -0.30325500 0.93676400 -1.04335300
H -2.27743300 4.72774600 5.56847900
30
energy = -2625.4365451099998
C 0.00210200 0.05481200 -0.05612200
C -0.72159100 -1.31324200 0.08961600
C -2.28836300 -1.26178700 0.09040800
C -2.99377800 -0.66158300 -1.16839100
C -4.45507000 -1.18361800 -1.31402000
F -4.44520100 -2.41278200 -1.82831300
F -5.06140100 -1.18891100 -0.13290500
S -5.45708400 -0.10383600 -2.48401200
O -5.96123100 1.01574200 -1.75079600
O -4.69464300 0.00419000 -3.69987300
O -6.68693500 -1.09298000 -2.72859100
F -3.04466400 0.66849700 -1.04489700
F -2.31649400 -0.99104300 -2.26828200
F -2.68734300 -2.53776000 0.21423600
F -2.68142100 -0.57073300 1.16145600
F -0.38463300 -1.84853600 1.26803800
F -0.31392800 -2.12144400 -0.89459000
C 1.55327900 -0.07815300 -0.19889000
C 2.28521600 1.26710600 0.09508100
C 3.74210900 1.30551100 -0.45138200
F 4.38892900 0.20280000 -0.09597300
F 3.73702600 1.40299300 -1.77075700
F 4.36693200 2.35626000 0.05666300
F 2.33040200 1.44566800 1.41710300
F 1.60446600 2.27227900 -0.46822200
F 2.00997000 -1.00071500 0.65314500
F 1.82774800 -0.46070200 -1.45108400
F -0.45586300 0.66502500 -1.15565000
F -0.27830200 0.79991500 1.01866700
H -6.50025100 -1.67086400 -3.48855200
30
energy = -2625.43208418
C 0.12610100 -0.26488200 -0.55304200
C -0.81951900 0.61919500 -1.42975600
C -2.31866000 0.46327200 -1.01295500
C -3.39844700 0.87084400 -2.06664100
C -3.40151000 2.33475800 -2.60095800
F -2.23119500 2.58240200 -3.18701900
F -4.37613700 2.40567100 -3.50376400
S -3.76316600 3.72739300 -1.38549400
O -3.96120000 4.88930000 -2.19574700
O -4.72216600 3.24520900 -0.42916000
O -2.34826100 3.89609800 -0.67711500
F -3.24491800 0.07750900 -3.13302800
F -4.58349400 0.62007600 -1.50925400
F -2.55516100 -0.81595800 -0.71785100
F -2.51588700 1.20370500 0.10001400
F -0.66437400 0.26154600 -2.70429000
F -0.48697900 1.90780300 -1.28393900
C 1.64515500 0.13828400 -0.64628300
C 2.11599400 1.10924800 0.47849600
C 3.49704300 1.76696000 0.18793900
F 4.37657600 0.84156400 -0.16984700
F 3.38541300 2.66244900 -0.77945900
F 3.92374400 2.36905400 1.28679800
F 2.21664700 0.41348100 1.61339800
F 1.22180500 2.09239300 0.64060200
F 2.36875300 -0.97703400 -0.54435900
F 1.87553600 0.69632700 -1.84397300
F -0.27004500 -0.19035500 0.72715500
F 0.01094800 -1.52411500 -0.97220000
H -2.28591800 3.29686500 0.08741600
30
energy = -2625.42087817
C 0.44179000 0.32317200 -0.06777000
C -0.68834300 0.86217000 -1.01537000
C -2.14976100 0.53295700 -0.51490100
C -2.91362000 -0.77041600 -0.95862200
C -2.55144400 -2.18188900 -0.37536300
F -2.10431100 -2.09047900 0.86881600
F -3.66410400 -2.91154000 -0.38037400
S -1.30300700 -3.16273900 -1.38876900
O -0.30068800 -2.25506300 -1.88301200
O -1.00625600 -4.33554600 -0.62596200
O -2.22624400 -3.60816000 -2.60881600
F -4.17818200 -0.54775400 -0.58398800
F -2.88099400 -0.85449100 -2.30387200
F -2.17715700 0.60264300 0.82098800
F -2.91409100 1.51526700 -1.01291800
F -0.54084700 0.43277900 -2.26958800
F -0.60783800 2.19548800 -1.01472000
C 1.88130800 0.10696500 -0.66308600
C 2.73724700 1.40495000 -0.87673600
C 3.67089700 1.78325100 0.31145900
F 3.01099000 1.78307700 1.45972100
F 4.67653100 0.92629900 0.38622300
F 4.15578800 2.99771300 0.09540700
F 1.92249200 2.43876000 -1.12207400
F 3.52116400 1.21483000 -1.94087800
F 2.53059200 -0.67746500 0.21058700
F 1.79615900 -0.53002000 -1.82677600
F 0.53826600 1.17206900 0.96145100
F 0.05043300 -0.86783600 0.40923600
H -2.18676700 -2.93032600 -3.30637200
30
energy = -2625.4312071
C 0.47025800 0.13293800 0.33336900
C -0.59408900 0.72892000 1.32814100
C -0.85480300 -0.18028400 2.57214600
C -1.55025700 0.49016800 3.79909400
C -2.95492200 1.14012000 3.60403900
F -3.32119600 1.60553300 4.79211500
F -2.84162600 2.14913800 2.74024700
S -4.37525300 0.06397600 2.97484900
O -5.56331800 0.60310400 3.56057100
O -4.18485400 -0.09746300 1.55956100
O -4.08629500 -1.32207400 3.70516600
F -1.65720900 -0.46600800 4.72999600
F -0.74710800 1.45159400 4.26189800
F -1.62286100 -1.22218400 2.18967300
F 0.30771700 -0.65697900 3.02514400
F -1.74045500 0.84866300 0.66287900
F -0.20334400 1.93983700 1.74265800
C 1.96731100 0.53974100 0.59476500
C 2.41521500 1.81285500 -0.18757500
C 3.74938100 2.41987700 0.33752400
F 3.56140400 3.00492300 1.50943800
F 4.66384900 1.46740200 0.46491500
F 4.18128000 3.32192700 -0.52956500
F 1.47159000 2.75699200 -0.09813800
F 2.58965100 1.47930500 -1.46822000
F 2.16752100 0.73599500 1.90578800
F 2.73551000 -0.47440300 0.19236800
F 0.38530200 -1.20211400 0.38689900
F 0.14021200 0.52608500 -0.90076800
H -3.47085200 -1.85415800 3.16897400
30
energy = -2625.43038376
C 0.05763100 0.10810200 0.03722700
C -0.73329700 -1.24921700 0.09397800
C -0.50203800 -2.36810100 -0.97919300
C -0.83028600 -2.08101300 -2.48740500
C -2.30474800 -2.38598300 -2.89541100
F -2.45031500 -3.69275800 -3.04719500
F -3.15023500 -1.93661300 -1.97282800
S -2.82038200 -1.54328900 -4.50626400
O -3.81174500 -2.38645000 -5.10041000
O -3.02515300 -0.15128200 -4.20828600
O -1.48946700 -1.69351600 -5.37616400
F -0.54751900 -0.80039600 -2.78300000
F -0.04206000 -2.86628700 -3.22107400
F 0.78129800 -2.73282200 -0.90918900
F -1.26050900 -3.40763100 -0.60183900
F -2.02799500 -0.91944700 0.09459800
F -0.43019400 -1.82779100 1.26161300
C 1.58881800 0.00217500 -0.20880200
C 2.35344400 1.32907200 0.09268300
C 3.78179300 1.36667300 -0.52730700
F 4.43243000 0.24600900 -0.24412800
F 3.70881000 1.50877600 -1.84160400
F 4.44477300 2.39297200 -0.01915400
F 2.47201600 1.45738700 1.41542900
F 1.66767200 2.36794400 -0.39648800
F 2.09300500 -0.95115600 0.57968100
F 1.78403400 -0.32948000 -1.49548900
F -0.48453400 0.88629300 -0.89982700
F -0.12783900 0.68209000 1.23426400
H -0.95090000 -0.88725700 -5.29024500
30
energy = -2625.42759746
C 0.28039200 0.02155600 -0.10903600
C -0.19034000 0.74867000 -1.43142200
C -0.12524500 -0.06959400 -2.75979100
C 1.29142400 -0.34094500 -3.36831100
C 2.11622800 0.89863300 -3.84789700
F 1.32695700 1.83721300 -4.35611600
F 2.80801900 1.39288300 -2.82865200
S 3.39711400 0.45030900 -5.15546900
O 4.14197300 1.64680300 -5.39966900
O 3.99394600 -0.79875200 -4.76299800
O 2.46746800 0.21523200 -6.42897500
F 2.03115600 -1.01260100 -2.49079200
F 1.06177500 -1.12547500 -4.44332000
F -0.71365500 -1.25477500 -2.57257700
F -0.83299300 0.61100600 -3.66760100
F 0.55285900 1.85752600 -1.61952100
F -1.46154400 1.11117300 -1.27564600
C 1.55060500 0.64404200 0.55390700
C 1.39241200 2.13244400 1.04699200
C 1.83311300 2.36353100 2.52007800
F 1.05320300 1.68879900 3.34998100
F 3.09182900 1.98130800 2.67998900
F 1.73633800 3.65525000 2.79520000
F 0.10463900 2.49974900 0.94698900
F 2.13216600 2.92906500 0.27763700
F 1.83963000 -0.14224800 1.59994800
F 2.55128500 0.56988800 -0.32577100
F -0.71470300 0.03860400 0.77682000
F 0.58726900 -1.25531000 -0.36904000
H 2.18185500 -0.71463900 -6.45561900
30
energy = -2625.42522874
C 0.13087700 -0.15447800 0.17733200
C -0.62415700 0.68651000 1.26900700
C -0.36203200 0.28887800 2.75422400
C -1.10485900 1.20352200 3.80617900
C -0.30568800 2.44301400 4.34109000
F 0.54797700 2.89880200 3.42306700
F -1.16929000 3.40168600 4.64548800
S 0.67691800 2.07103700 5.90340900
O -0.21421700 2.17332300 7.01688700
O 1.50332400 0.92341700 5.63772300
O 1.59619500 3.37673300 5.91636000
F -2.23902700 1.66040900 3.26775000
F -1.41338200 0.44055100 4.86077900
F -0.81060900 -0.95337600 2.93391100
F 0.95362200 0.32060400 2.99203700
F -1.92197000 0.48196000 1.02059600
F -0.34767400 1.98821700 1.11236200
C 1.66248200 0.01630200 -0.10810700
C 2.16468900 1.42723100 -0.59366700
C 2.92515000 2.23502800 0.49552300
F 2.22545700 2.26707300 1.62446000
F 4.10412500 1.68425100 0.73312900
F 3.10565900 3.47523400 0.07000600
F 1.13419200 2.16304300 -1.02398700
F 3.01476700 1.24635600 -1.60611700
F 2.36476700 -0.35819200 0.96810500
F 1.91149900 -0.85310900 -1.09293900
F -0.03443000 -1.44599800 0.49354400
F -0.49676500 0.09003100 -0.97898700
H 2.41949500 3.20529700 5.42739000
30
energy = -2625.4291182000006
C 0.36005600 -0.24071600 -0.50084700
C -0.29694900 0.14879600 -1.87654100
C -1.84275700 0.41098600 -1.86478800
C -2.79380700 -0.76343100 -1.43966100
C -3.25694300 -1.66012200 -2.62497600
F -4.18884200 -1.01668200 -3.32743100
F -2.23461000 -1.97396100 -3.40954600
S -4.03073400 -3.26302600 -2.01458700
O -2.98005400 -4.19778000 -1.75411100
O -5.04510100 -2.90263000 -1.05954800
O -4.73621600 -3.71749000 -3.37314600
F -2.17896600 -1.53910700 -0.53585200
F -3.88038800 -0.22711000 -0.88939300
F -2.07197300 1.44325500 -1.05337900
F -2.17343100 0.76985400 -3.11584800
F -0.01975100 -0.81043700 -2.75914700
F 0.23315200 1.29993700 -2.31765500
C 1.84211500 0.25982000 -0.30871700
C 2.06728900 1.61631900 0.43470200
C 1.43297900 2.89720300 -0.16349800
F 1.88714300 3.11008800 -1.38826300
F 0.10960800 2.78489900 -0.19331700
F 1.75498400 3.92857400 0.60113400
F 3.39197500 1.80987500 0.45844200
F 1.62098300 1.48562300 1.68772900
F 2.45868400 -0.65037700 0.45299000
F 2.45440000 0.30414900 -1.49823500
F -0.39110700 0.22004000 0.50940900
F 0.39422000 -1.57174200 -0.43758700
H -5.64017400 -3.35999800 -3.41146000
30
energy = -2625.4311212100006
C 0.12513800 0.17980400 0.02509300
C -0.47230700 -1.27015600 -0.05745400
C -0.01484100 -2.28896600 1.03181700
C -0.96426300 -3.50041900 1.30186500
C -1.32417200 -4.45165900 0.11842100
F -2.11374800 -5.39299300 0.62126100
F -1.98495800 -3.75590800 -0.80676700
S 0.07298400 -5.33808000 -0.79328400
O -0.48559700 -6.56858900 -1.26100700
O 0.69805100 -4.36767600 -1.64960800
O 1.06450500 -5.70160300 0.39929900
F -0.36319100 -4.22815500 2.25247200
F -2.11815000 -3.03602400 1.78548200
F 1.18461900 -2.79864900 0.67851800
F 0.11378200 -1.65587800 2.20033800
F -0.18203000 -1.77064700 -1.25645100
F -1.79872400 -1.11433200 0.05074000
C 1.67498100 0.28796000 -0.03250700
C 2.20585200 1.74581700 0.13021100
C 3.71114100 1.89389800 -0.24247000
F 4.42857600 0.95870400 0.36632200
F 3.87324100 1.78546200 -1.55097700
F 4.13338800 3.08589100 0.14861700
F 2.05587900 2.10520300 1.40774100
F 1.50847600 2.57716700 -0.64965800
F 2.19049800 -0.43968100 0.96889900
F 2.09409300 -0.20796000 -1.20135700
F -0.38452600 0.82662800 -1.02818500
F -0.30285600 0.76186700 1.14947300
H 1.66773100 -4.95442100 0.56363700
30
energy = -2625.43009414
C -0.17230800 0.40528600 0.04217700
C -0.41983500 1.08472400 1.42910100
C -0.13691000 0.20514900 2.68862900
C -0.88170400 0.60741300 4.00363900
C -0.68850600 2.04723400 4.56193400
F -1.05230300 2.93564000 3.63090300
F -1.48820000 2.16212000 5.61797000
S 1.01348300 2.55339400 5.17869700
O 0.80783300 3.82093900 5.82538100
O 1.63581800 1.42923100 5.80698000
O 1.76354600 2.79763500 3.79346800
F -2.19591900 0.45774000 3.80055300
F -0.49048400 -0.25714400 4.94089700
F -0.52884500 -1.04848200 2.43093900
F 1.17627800 0.21712500 2.93254500
F -1.70841900 1.44683100 1.43173700
F 0.33717700 2.18746100 1.48872300
C 1.22981000 -0.19615300 -0.26915900
C 2.47571500 0.74213100 -0.29163600
C 2.42434700 1.97584800 -1.23920800
F 1.94383700 1.63623100 -2.42544700
F 1.66705200 2.93003000 -0.71626700
F 3.65342700 2.44567000 -1.38742100
F 3.49822600 -0.02273500 -0.68996600
F 2.71385500 1.17961600 0.94858400
F 1.48524900 -1.14925000 0.63698200
F 1.13059000 -0.76131200 -1.47722200
F -1.05608400 -0.58575500 -0.09609300
F -0.42772000 1.34075800 -0.88521500
H 1.63394400 3.71725800 3.50288800
30
energy = -2625.4333444300005
C -0.09608600 0.37487000 0.07898200
C -0.53989200 0.90554700 1.47599500
C -0.16053200 0.12949500 2.77367700
C -0.64592100 -1.34711200 2.93398100
C -2.17935300 -1.59529000 2.82340500
F -2.84838900 -0.64334500 3.46479800
F -2.53933200 -1.62297900 1.54619300
S -2.69479600 -3.25574900 3.54968500
O -4.08319300 -3.40856800 3.24174300
O -1.68332300 -4.21383300 3.19024200
O -2.59675200 -2.94526300 5.10982000
F -0.01042800 -2.10719900 2.04807400
F -0.26298600 -1.71169400 4.17737500
F 1.17065500 0.10451900 2.89106000
F -0.66701800 0.83779900 3.78881500
F -1.87843100 0.97678800 1.44330500
F -0.04149000 2.14038200 1.61435700
C 1.42650100 0.18976700 -0.21725000
C 2.33632500 1.44027600 -0.02996700
C 3.71139600 1.30919200 -0.75167700
F 4.26034100 0.13284800 -0.47914200
F 3.56117200 1.42984100 -2.06003600
F 4.51284300 2.27058100 -0.31957300
F 2.57300900 1.60948100 1.27401600
F 1.71995900 2.52344300 -0.51366000
F 1.88553200 -0.80039500 0.55425100
F 1.50048300 -0.18872300 -1.50120700
F -0.66503600 -0.82073800 -0.11523500
F -0.59159000 1.23490500 -0.81601300
H -1.68793800 -3.10853000 5.41793700
30
energy = -2625.431846
C 0.05108500 0.08056700 -0.13313600
C -0.67216600 -1.30744200 -0.03485700
C -0.39035700 -2.31158300 -1.18906800
C -1.13875400 -3.67405000 -1.02742200
C -1.08824200 -4.57795300 -2.31317000
F -0.01397800 -4.28835600 -3.04316400
F -1.03367500 -5.84749500 -1.93066600
S -2.57623200 -4.40991500 -3.45290200
O -2.87991700 -3.01094500 -3.59372500
O -2.32002200 -5.28335900 -4.55639400
O -3.70049900 -5.10124200 -2.55803700
F -0.56309500 -4.34010200 -0.02815400
F -2.43033800 -3.46247900 -0.70519500
F -0.73246800 -1.74195400 -2.34485600
F 0.91875200 -2.59385100 -1.19149700
F -1.97984100 -1.02134300 -0.02507700
F -0.34042600 -1.88766800 1.12225900
C 1.60061000 0.06720300 -0.25919800
C 2.31623900 1.40466600 0.11674400
C 1.82556700 2.67727800 -0.62586300
F 1.78744700 2.46089700 -1.93252200
F 0.61548300 3.01751500 -0.20419000
F 2.66196000 3.67145000 -0.37371700
F 3.60843200 1.23364800 -0.18513100
F 2.19672600 1.61057400 1.43039200
F 2.09652800 -0.87122800 0.55719400
F 1.91963300 -0.22607800 -1.52383200
F -0.44472400 0.73298000 -1.18959300
F -0.28242000 0.73435500 0.98780400
H -4.12739400 -4.42923400 -1.99846900
30
energy = -2625.4294220300003
C 0.21007000 -0.01738200 0.01917700
C -0.74216200 0.56036000 -1.07970000
C -0.69618500 -0.00110800 -2.54012300
C -0.83813100 -1.54025400 -2.70577500
C -1.05787600 -2.03624300 -4.17249400
F -0.06372100 -1.58023700 -4.93068200
F -1.01738000 -3.36421900 -4.12785000
S -2.69222700 -1.62299300 -5.02630700
O -2.81747800 -2.58481900 -6.07774400
O -3.69123400 -1.41111200 -4.01367800
O -2.33690800 -0.23359100 -5.71831100
F 0.31193200 -2.10013000 -2.30690300
F -1.83174700 -1.98274800 -1.93814800
F -1.74867200 0.58425400 -3.16128500
F 0.41870500 0.41044500 -3.14016600
F -0.54690300 1.87790200 -1.18478700
F -1.97922700 0.34793600 -0.61813500
C 1.76844000 0.01327400 -0.15346500
C 2.46939700 1.38670600 0.05574500
C 3.99689000 1.36286300 -0.25755300
F 4.59710000 0.38537000 0.40462700
F 4.19757800 1.19808800 -1.55571300
F 4.51794500 2.52171600 0.11503700
F 2.31714000 1.76246500 1.32704000
F 1.91532700 2.29837000 -0.75161300
F 2.25024200 -0.82545200 0.76976300
F 2.08784300 -0.44790400 -1.36985300
F -0.08578100 0.64888500 1.14199500
F -0.12947500 -1.30318000 0.17666600
H -2.53441800 0.49679300 -5.10719800
30
energy = -2625.4311789900007
C 0.09685900 0.34300500 0.12470600
C -0.70107300 0.32421600 -1.21528400
C -2.26451800 0.51729400 -1.07162300
C -3.06705800 -0.82281800 -1.04047700
C -4.53386500 -0.61804700 -0.54464200
F -4.54480500 -0.57395200 0.77827700
F -5.03339800 0.51019700 -1.04369400
S -5.70589700 -1.99327100 -1.09883700
O -6.69538200 -2.11940000 -0.07313300
O -6.01184800 -1.75623200 -2.48373600
O -4.75159900 -3.26982200 -0.98953600
F -3.09613300 -1.33664600 -2.28158200
F -2.46988400 -1.69010200 -0.22259800
F -2.55703300 1.19526300 0.04569100
F -2.67961800 1.21625700 -2.12747900
F -0.49558000 -0.84800100 -1.83378600
F -0.23351200 1.30931800 -1.98364300
C 1.66104700 0.17260500 -0.04178300
C 2.44959800 1.51770300 -0.01235500
C 3.92791100 1.37281500 -0.48330100
F 4.50922200 0.35325900 0.13432200
F 3.97939500 1.17780800 -1.79127400
F 4.58091800 2.48615600 -0.18824200
F 2.46227500 1.97566800 1.24174500
F 1.85598600 2.41070000 -0.81127900
F 2.09669700 -0.57529000 0.97319800
F 1.93970700 -0.45749500 -1.19200300
F -0.12747600 1.50532400 0.75165300
F -0.35292700 -0.65547400 0.88724600
H -4.31509600 -3.42374400 -1.84614700
30
energy = -2625.43212272
C -0.05742900 0.02944500 -0.00780400
C -0.59495200 -1.42668100 0.18263400
C -2.15916600 -1.47583000 0.18734100
C -2.73667400 -2.91044600 -0.07789200
C -2.93249400 -3.30873900 -1.58575700
F -2.12251700 -2.61205000 -2.38732000
F -2.67572000 -4.60127800 -1.72231100
S -4.68781700 -3.01372900 -2.19333200
O -5.50470800 -4.09693200 -1.74161300
O -4.99021300 -1.62498300 -1.96797500
O -4.43220000 -3.23898000 -3.75370100
F -1.91814000 -3.80330000 0.48758800
F -3.92943500 -2.98826900 0.52315100
F -2.56981400 -1.09847100 1.39866500
F -2.64241400 -0.62156800 -0.72143700
F -0.16128700 -1.92276900 1.34326100
F -0.12330800 -2.18007200 -0.81842200
C 1.43774800 0.19437500 0.38261000
C 2.06013200 1.60764500 0.13517900
C 2.03298900 2.16763400 -1.31823400
F 2.30000300 1.20824200 -2.19380300
F 0.84717300 2.69161800 -1.58789500
F 2.94966400 3.11687700 -1.42629700
F 3.34224300 1.50713900 0.50325100
F 1.43940200 2.48588500 0.92845200
F 1.56414000 -0.02939500 1.69502400
F 2.15106400 -0.71386000 -0.29329300
F -0.19227400 0.34141500 -1.30369200
F -0.78850800 0.86776600 0.73441300
H -4.20788900 -2.39207600 -4.17643100
30
energy = -2625.42337965
C 0.09774400 0.15168400 -0.35219500
C -0.66230800 -1.21221200 -0.23068600
C -2.21531700 -1.08985000 -0.01049900
C -2.83656700 -0.97306400 1.43255800
C -2.74838700 0.37301700 2.24101000
F -2.69378100 1.41363000 1.42388200
F -3.84948400 0.46283300 2.98244400
S -1.34662100 0.49630600 3.51084100
O -0.92362500 1.86304400 3.50815700
O -1.79681700 -0.20667800 4.68130100
O -0.18288500 -0.35872000 2.82939400
F -4.14068700 -1.19282700 1.24197500
F -2.34816900 -1.96790500 2.19630800
F -2.67475600 -0.07923000 -0.75593700
F -2.71917000 -2.23949000 -0.47907000
F -0.14220400 -1.98995700 0.72852100
F -0.49490700 -1.83622200 -1.39990800
C 1.64293500 0.02043100 -0.23435000
C 2.45160700 1.35725800 -0.31520100
C 2.22515700 2.25738100 -1.56296000
F 2.20897900 1.52572500 -2.66850600
F 1.07949600 2.91299100 -1.45120600
F 3.21241800 3.13550000 -1.64093900
F 3.74165200 1.00167000 -0.30268500
F 2.18118400 2.08110900 0.77264900
F 1.95038600 -0.51733700 0.95089900
F 2.05988600 -0.79516300 -1.20939500
F -0.18604300 0.64138100 -1.56512800
F -0.33942800 1.01410400 0.57248800
H -0.22680900 -1.27940100 3.14185500
30
energy = -2625.4232139500004
C 0.13337600 0.22877300 0.06340100
C -0.47590400 0.87436900 -1.22249000
C -2.03915400 0.83274200 -1.32659200
C -2.91572300 1.45769500 -0.20053900
C -2.78202900 2.97678600 0.13887400
F -3.70516700 3.22936100 1.05994900
F -1.57186100 3.20797100 0.64284600
S -3.02306800 4.23922000 -1.24184100
O -3.52262000 5.42027100 -0.60908800
O -1.83499800 4.20788700 -2.05047900
O -4.23403900 3.60004300 -2.05584900
F -4.18491400 1.23472000 -0.56280700
F -2.66752300 0.79226800 0.93318800
F -2.34938900 1.47113600 -2.47860500
F -2.42277600 -0.43746900 -1.44633500
F -0.03831200 0.22137600 -2.30389200
F -0.09436600 2.14976900 -1.29149100
C 1.63958800 -0.21470200 0.03596200
C 2.77193400 0.85437100 0.19322500
C 2.87980900 1.96844600 -0.89599500
F 2.41401000 1.51634000 -2.05745000
F 2.18528800 3.03143000 -0.52941100
F 4.14497400 2.31773600 -1.04932900
F 3.91162800 0.15338800 0.16236700
F 2.64940600 1.43896800 1.38640700
F 1.77832600 -1.00744300 1.10892400
F 1.87976200 -0.93564800 -1.06117500
F -0.02004100 1.09017000 1.07605100
F -0.56480900 -0.88557800 0.31969500
H -3.88956800 2.97893200 -2.72248200
30
energy = -2625.4296566
C -0.12019500 0.15955800 0.22964000
C -0.60078300 0.84151300 1.54817600
C -0.23834000 0.20740800 2.93586500
C -0.57073600 -1.30207600 3.13509100
C -0.62259500 -1.68779300 4.64560500
F 0.38176600 -1.11483100 5.30894000
F -1.78092000 -1.30541600 5.16451900
S -0.46190000 -3.54601600 4.88543100
O -1.49499200 -4.15941700 4.10703000
O 0.93052400 -3.89526000 4.79112900
O -0.89402200 -3.62337900 6.42238200
F -1.75893700 -1.57649900 2.59895500
F 0.37998000 -2.03427000 2.54380300
F 1.05952700 0.39153700 3.17788200
F -0.94912400 0.90139300 3.83924000
F -1.93428500 0.88902600 1.47453200
F -0.12155800 2.09220300 1.57945900
C 1.40795700 0.11671900 -0.09208000
C 2.11748500 1.48344800 -0.44896900
C 3.12486600 1.98184000 0.62592500
F 2.53799500 2.07245800 1.81046500
F 4.15348600 1.15247400 0.70589000
F 3.56438200 3.17998600 0.27205400
F 1.21087700 2.44712800 -0.64155400
F 2.80712400 1.31332700 -1.57853700
F 2.03426300 -0.45924400 0.94616000
F 1.52249300 -0.68441600 -1.15312200
F -0.53355600 -1.11517000 0.26167700
F -0.74088400 0.77781500 -0.77969400
H -0.09698100 -3.69613300 6.97560800
30
energy = -2625.4320709400004
C 0.15270500 -0.02823700 -0.16535400
C -0.54866200 0.34978700 -1.51206700
C -2.09157500 0.54073800 -1.37794400
C -2.78819400 0.93034900 -2.72364400
C -4.35036300 0.79127400 -2.66848200
F -4.79438100 0.97149000 -1.42841900
F -4.88720600 1.71616900 -3.46456900
S -5.02980100 -0.86141200 -3.25730000
O -4.16787100 -1.91149900 -2.80815800
O -6.44068300 -0.81369700 -2.98114300
O -4.80905200 -0.69995800 -4.83015500
F -2.50487500 2.21197500 -2.97133000
F -2.32883200 0.18672100 -3.73467400
F -2.61780000 -0.59449700 -0.91072800
F -2.33585300 1.53495500 -0.51728600
F -0.31220300 -0.64531400 -2.37071600
F -0.03165800 1.48821200 -1.99107300
C 1.72459500 0.07384000 -0.22350400
C 2.29331700 1.42215700 0.31297800
C 3.78658800 1.64971900 -0.06529300
F 4.49906500 0.56599200 0.21262900
F 3.89921300 1.92792800 -1.35421900
F 4.25746300 2.66868200 0.63719600
F 2.20115900 1.41766400 1.64523300
F 1.58756500 2.44638700 -0.17844500
F 2.22622300 -0.90450300 0.53189800
F 2.13765000 -0.10191600 -1.48776800
F -0.29143000 0.75219000 0.82873700
F -0.16937000 -1.29346100 0.10756800
H -5.61466600 -0.33639500 -5.23702400
30
energy = -2625.43546075
C 0.19166600 -0.04040900 -0.19001400
C -0.46519700 0.72664000 -1.38027900
C -0.16650500 0.20442800 -2.81607100
C -1.15181900 0.72593900 -3.91878200
C -1.31329900 2.26992000 -3.98789600
F -2.10662600 2.67909600 -2.99492400
F -0.13154600 2.86657400 -3.89745000
S -2.11803500 2.80917200 -5.60039900
O -1.10064100 2.90560800 -6.60056500
O -3.32161900 2.03403300 -5.74536100
O -2.50813500 4.30066500 -5.18402400
F -0.65658600 0.31271300 -5.09229900
F -2.34757400 0.17496600 -3.72499800
F 1.06989000 0.56579500 -3.16412100
F -0.25746200 -1.12921900 -2.82750900
F -0.08393100 2.01064800 -1.31499800
F -1.78704400 0.65545400 -1.17518100
C 1.74729400 -0.15173900 -0.14059700
C 2.54798300 1.18501800 -0.11007400
C 4.01352800 1.00577900 0.38866800
F 4.03553100 0.80096400 1.69523500
F 4.58218900 -0.02262800 -0.22637400
F 4.69658000 2.10607500 0.11369200
F 1.94135100 2.05787100 0.70102900
F 2.59368200 1.68787600 -1.34634700
F 2.02963200 -0.83092900 0.98031000
F 2.14554700 -0.86918200 -1.19699900
F -0.22126700 0.57279000 0.92435900
F -0.27886300 -1.29171500 -0.19118400
H -3.39969600 4.31270100 -4.79490800
30
energy = -2625.42923066
C 0.44829000 0.14841900 0.50432300
C -0.41595800 0.98245200 1.52705800
C -0.58307600 0.40305100 2.97592700
C 0.69939400 0.26941900 3.83876300
C 0.48064900 -0.09786700 5.34327700
F 1.69078100 -0.24467500 5.87656200
F -0.15623200 0.89947400 5.95706800
S -0.44488600 -1.67584300 5.75651700
O -0.10600400 -2.67456100 4.78965400
O -0.28606600 -1.85089100 7.17494900
O -1.94209900 -1.20079300 5.46815900
F 1.50149000 -0.65092700 3.30062400
F 1.32413500 1.45486000 3.85599000
F -1.40691200 1.24916900 3.61316700
F -1.17352300 -0.79017900 2.88200500
F -1.65970800 1.02829500 1.03803000
F 0.05142300 2.23193900 1.62027900
C 1.93549800 0.61667400 0.31854700
C 2.11514400 1.70634700 -0.78424300
C 3.47210400 2.46229100 -0.68372900
F 3.46811000 3.28257500 0.35473700
F 4.46695900 1.59435400 -0.55335400
F 3.65534200 3.16773100 -1.78896000
F 1.13245200 2.61059200 -0.69940700
F 2.06307600 1.10958600 -1.97702700
F 2.41388200 1.08042600 1.48314400
F 2.65307500 -0.44723500 -0.04381000
F 0.46253700 -1.13033000 0.88944600
F -0.14813700 0.21935700 -0.69200400
H -2.33836800 -0.86233300 6.29004700
30
energy = -2625.42512699
C 0.13451000 -0.07818500 0.20580900
C -0.43160200 0.64954600 -1.06889100
C -0.11082800 0.00394800 -2.46794900
C 1.17464000 0.55260800 -3.20413100
C 0.93775800 1.53077200 -4.40216300
F 2.14944900 1.84808000 -4.87048200
F 0.24820100 0.91205900 -5.35267400
S 0.08564500 3.17286200 -4.08684000
O 0.17069100 3.89109300 -5.32928500
O -1.14238800 2.94063400 -3.39029800
O 1.10982500 3.81414000 -3.04462800
F 2.00312000 1.16062900 -2.34504400
F 1.81107900 -0.49484800 -3.73650500
F 0.02775700 -1.31532000 -2.29964800
F -1.16195500 0.20434900 -3.26774600
F -0.05840300 1.93075400 -1.05344600
F -1.75861000 0.59412200 -0.91776900
C 1.65971000 -0.40618300 0.33597900
C 2.55962900 0.78394500 0.79202000
C 4.06807600 0.55060500 0.48944500
F 4.43482100 -0.65713400 0.89629800
F 4.29652500 0.66324200 -0.81022100
F 4.78421700 1.46010400 1.13198200
F 2.41735800 0.93803000 2.10975300
F 2.18963300 1.91099900 0.17604900
F 1.77305600 -1.36040800 1.26290200
F 2.11628000 -0.89565800 -0.82911100
F -0.19527800 0.69352700 1.25235100
F -0.51533200 -1.24126500 0.30535900
H 1.77985000 4.33581000 -3.52012300
30
energy = -2625.43525881
C 0.00782500 -0.20197600 0.52167200
C -1.06791700 0.34661700 1.51282600
C -2.55019900 0.06861200 1.06262200
C -3.20128100 1.24107100 0.26165300
C -4.47990100 0.78076600 -0.49987300
F -4.12632100 0.13889500 -1.61327800
F -5.21514900 -0.01591200 0.26631300
S -5.54164400 2.24463200 -1.01582700
O -6.36808800 2.61699900 0.09019500
O -4.67764900 3.15444300 -1.72047800
O -6.48116100 1.49910900 -2.07067300
F -3.54127600 2.20589100 1.12117000
F -2.33535100 1.72077800 -0.63099100
F -2.58841100 -1.04031500 0.30697600
F -3.28037000 -0.13046700 2.15924300
F -0.91593600 1.66614000 1.68491100
F -0.87605100 -0.26517500 2.68281800
C 1.45612400 0.35644500 0.77919600
C 1.81687100 1.59858400 -0.08997700
C 3.08646800 2.35218500 0.40374500
F 2.83391000 2.99261600 1.53375600
F 4.07967400 1.49479400 0.59885900
F 3.44864600 3.23093700 -0.51795200
F 0.79921000 2.46567800 -0.08918800
F 2.04431600 1.18245700 -1.33878500
F 1.58263900 0.67033800 2.07735800
F 2.32631900 -0.61097300 0.48466600
F 0.04507800 -1.52710200 0.67533900
F -0.34384700 0.07484500 -0.74145100
H -6.07744800 1.53413300 -2.95509100
30
energy = -2625.4257707300007
C 0.49067100 -0.14453700 0.00826500
C -0.44052700 0.39660300 1.14666200
C -0.00810300 0.06261700 2.62639100
C -0.76322700 -1.15280100 3.24859400
C -0.16159500 -1.62737400 4.62423500
F 0.52585900 -0.64252500 5.21018600
F -1.15400800 -1.99889800 5.41984100
S 0.99912500 -3.09740600 4.46335100
O 0.19949800 -4.27238900 4.30426900
O 2.06389700 -2.71952900 3.57264700
O 1.56086800 -3.10741300 5.95881600
F -2.02753000 -0.79073800 3.46560300
F -0.73657600 -2.18764600 2.40008200
F 1.30536600 -0.18361000 2.66445200
F -0.27503400 1.12874000 3.38457900
F -1.64249600 -0.15424300 0.92191300
F -0.56891900 1.71886300 1.02338900
C 1.91665200 0.44914000 -0.29211700
C 2.03762800 1.99679700 -0.49660800
C 2.44622900 2.77686200 0.79070000
F 1.76874900 2.34142200 1.85097200
F 3.73791100 2.61477100 1.02067400
F 2.19134300 4.06338200 0.62187800
F 0.88519500 2.48586300 -0.96432300
F 2.99536900 2.21984100 -1.40035500
F 2.79115400 0.07592800 0.64711900
F 2.27201300 -0.13020200 -1.44515000
F 0.67473600 -1.45052000 0.23815400
F -0.20994700 0.00847700 -1.12270100
H 2.37204600 -2.57282800 6.00846300
30
energy = -2625.4301985100005
C 0.54685400 0.87315700 0.08119900
C -0.81458500 1.01292300 -0.69942400
C -1.03677800 2.39519400 -1.40973000
C -1.67654300 3.52176800 -0.51593500
C -3.23401800 3.58346800 -0.60435700
F -3.57717900 4.20379700 -1.72251300
F -3.75620200 2.36012600 -0.58400600
S -4.02647500 4.49907900 0.84675800
O -5.22062800 5.10243800 0.34002200
O -3.99391400 3.60790800 1.97496000
O -2.97225700 5.67487200 1.08606900
F -1.31814500 3.35390900 0.77111000
F -1.19884300 4.69239400 -0.93469700
F 0.13351000 2.84436700 -1.86988400
F -1.84918500 2.19512300 -2.45454000
F -1.81056200 0.80928000 0.16717600
F -0.87151000 0.06282500 -1.63888500
C 1.69643700 0.23878500 -0.76666300
C 3.12357900 0.40112400 -0.12984600
C 3.92600600 1.63337500 -0.64211900
F 4.31707100 1.43232400 -1.89025000
F 3.18901000 2.73432500 -0.58965800
F 4.99414200 1.79426200 0.12400900
F 3.83700100 -0.68581300 -0.43169200
F 3.01125000 0.48968300 1.20110800
F 1.44090100 -1.06582600 -0.87274900
F 1.71071100 0.78112200 -1.99332100
F 0.92391200 2.07898600 0.53110100
F 0.33363400 0.07327600 1.12631300
H -2.31979100 5.39610400 1.75263800
30
energy = -2625.4285889099997
C 0.03934800 0.00724400 -0.18094000
C -0.46791600 -1.45931400 0.02442000
C -0.17435900 -2.23701300 1.35900300
C -0.59783800 -1.55155800 2.70735000
C 0.51226200 -0.69599600 3.42470000
F 1.45708700 -0.28451800 2.57097300
F -0.05452000 0.35856100 3.98875000
S 1.40088500 -1.66548100 4.76998300
O 0.57749000 -1.67167600 5.93901100
O 1.93734300 -2.84817200 4.15041700
O 2.59424900 -0.64061900 5.04441400
F -1.66279600 -0.77660200 2.48915400
F -0.95632900 -2.52258200 3.55659700
F -0.90449400 -3.35317800 1.25238400
F 1.11247300 -2.58197900 1.41694000
F 0.04435600 -2.20602200 -0.96349500
F -1.79712800 -1.41688600 -0.10660000
C 1.53510400 0.14164400 -0.59757600
C 2.15190500 1.56306900 -0.41065100
C 1.40449400 2.73433900 -1.10558300
F 1.16529200 2.43600000 -2.37402600
F 0.25555100 2.97617800 -0.49024900
F 2.15875300 3.82014000 -1.04779400
F 3.38640200 1.50960400 -0.92265100
F 2.23134400 1.82623500 0.89788000
F 2.28261100 -0.69203000 0.13698200
F 1.64251800 -0.19993300 -1.88280600
F -0.68334900 0.53285200 -1.17622500
F -0.19991500 0.71579800 0.93349800
H 3.34875800 -0.85168200 4.46775900
30
energy = -2625.4262736700002
C -0.20428500 0.23513500 0.23147100
C -0.81124000 1.01478400 1.43844600
C -0.67838700 0.46646900 2.90272800
C -1.00604100 -1.02103700 3.26583800
C -2.47011400 -1.47717200 3.02356100
F -3.28032300 -0.81181500 3.83644000
F -2.83056300 -1.26219900 1.75686600
S -2.75573900 -3.30934700 3.35045000
O -1.97801300 -3.70363500 4.48484800
O -4.17802500 -3.49850800 3.24923000
O -2.06119800 -3.93120100 2.05513900
F -0.17215000 -1.83251400 2.60954200
F -0.77332900 -1.12008800 4.57666400
F 0.57999600 0.66745100 3.30247500
F -1.49422700 1.23351900 3.63881600
F -2.11659800 1.14598200 1.17705300
F -0.25470600 2.23393800 1.46214600
C 1.34821600 0.07950400 0.14193600
C 2.19772000 1.37357800 -0.18810500
C 3.09093300 1.87345000 0.98318800
F 2.35831800 2.10977300 2.06088000
F 4.01843700 0.97258300 1.26717500
F 3.68299600 2.99824800 0.61161400
F 1.39992100 2.38219600 -0.55358900
F 3.01461200 1.08525000 -1.20322700
F 1.77605700 -0.45997700 1.29421500
F 1.55802600 -0.79948600 -0.84041500
F -0.70980800 -1.00658600 0.24655700
F -0.63126900 0.84227100 -0.88000900
H -2.72468400 -4.05402600 1.35410900
30
energy = -2625.4298055300005
C 0.00703000 0.46776500 -0.07539000
C -0.71587800 0.97893600 1.20046800
C -2.28229100 0.87748100 1.19512300
C -3.12729600 1.41991800 -0.00484200
C -3.06380300 2.95170600 -0.24495400
F -3.59936300 3.58572300 0.78996500
F -1.79965500 3.34809000 -0.40983900
S -4.00267000 3.52463500 -1.77476200
O -5.18452900 2.73110900 -1.91856400
O -4.00577800 4.96106100 -1.70135500
O -2.98235100 3.06996400 -2.91427500
F -2.76019100 0.78401300 -1.12220100
F -4.39341400 1.11296200 0.28343500
F -2.59581400 -0.41599700 1.30654600
F -2.69138100 1.52583100 2.29351200
F -0.36773200 2.24903800 1.42874900
F -0.32468400 0.22631300 2.23689000
C 1.55345100 0.22159000 0.01583800
C 2.47685200 1.46350500 0.29986200
C 2.96174100 1.59315100 1.77238400
F 1.93546600 1.53080000 2.61018600
F 3.81758500 0.62592500 2.05753900
F 3.56614800 2.76188300 1.91962500
F 1.83884200 2.59168900 -0.03405600
F 3.57020100 1.34789500 -0.45718600
F 1.79047700 -0.72334200 0.93359900
F 1.88945900 -0.25581900 -1.18707800
F -0.53160900 -0.71654200 -0.39462100
F -0.20882400 1.33070600 -1.07552300
H -2.37391600 3.80044000 -3.12152500
30
energy = -2625.4322923199998
C 0.16526900 0.19921000 0.23822300
C -0.65213200 -1.13601100 0.11557400
C -0.17779500 -2.29525700 1.03585700
C -1.11753300 -3.54136200 1.18606800
C -1.37363900 -4.41748400 -0.09688700
F -0.47168700 -4.15662300 -1.04635400
F -1.29750000 -5.69821700 0.23391000
S -3.07282500 -4.14669600 -0.85120400
O -4.02747200 -4.85231800 -0.05403400
O -3.17532700 -2.75123800 -1.18745600
O -2.86614600 -4.98516400 -2.19429800
F -0.50942400 -4.32447800 2.08105900
F -2.29409900 -3.15029800 1.68723700
F 1.01054300 -2.73652900 0.60465900
F -0.03824400 -1.79981400 2.27251300
F -0.60447500 -1.53858800 -1.15772100
F -1.90879100 -0.82085800 0.44048300
C 1.70722300 0.08001400 0.05981300
C 2.38972400 1.45013200 -0.24038700
C 3.92840900 1.43584500 -0.00156800
F 4.19627600 1.39966300 1.29350200
F 4.46959900 0.37724100 -0.59089400
F 4.45458400 2.53488700 -0.51958900
F 1.85909200 2.39444900 0.54471300
F 2.17442600 1.76166900 -1.52038900
F 2.22239400 -0.42180000 1.19058500
F 1.97230400 -0.74809000 -0.95638400
F -0.30612500 1.00492300 -0.72390300
F -0.08876800 0.74239800 1.42920200
H -2.53923900 -4.40037600 -2.89976500
30
energy = -2625.4256921500005
C 0.32197700 0.24831300 -0.19342800
C -0.29112900 -1.10923100 0.36117700
C -0.31253200 -2.32761500 -0.61853700
C 1.03345800 -3.01658500 -1.00577000
C 1.85596100 -3.76151500 0.09594900
F 2.79853100 -4.45600500 -0.55385100
F 2.44094700 -2.88521000 0.90060400
S 0.93968100 -5.01172000 1.15386400
O 0.29525800 -4.31091000 2.22086700
O 0.27468700 -5.92050200 0.25895300
O 2.21169700 -5.74254500 1.78384600
F 0.72901200 -3.91742800 -1.94230500
F 1.86656600 -2.10694900 -1.52766500
F -1.06837000 -3.26667000 -0.02929900
F -0.91046700 -1.95699900 -1.75331300
F -1.56779200 -0.87309500 0.66730300
F 0.35000700 -1.50243600 1.46892600
C 1.63092400 0.68312900 0.52963800
C 2.22846600 2.05695900 0.03657400
C 1.87015800 3.27172600 0.94327500
F 0.56260000 3.33064600 1.15068700
F 2.49649500 3.18060300 2.10538100
F 2.25864100 4.38193100 0.33321600
F 1.80618600 2.33539700 -1.20152200
F 3.55904900 1.94757400 0.02576500
F 1.39139700 0.78963100 1.84395300
F 2.54029900 -0.27359900 0.32192100
F 0.58126700 0.11261400 -1.49924300
F -0.58091900 1.21675300 -0.03162100
H 2.49283300 -6.47294300 1.20600900
30
energy = -2625.42795531
C 0.15180400 -0.03409000 0.09042100
C -0.56128100 0.44704800 -1.20802100
C -2.11206300 0.65906700 -1.12349800
C -2.76487000 1.69743000 -0.15340200
C -2.22278100 3.15531500 -0.14621400
F -2.90908700 3.82315000 0.78623500
F -0.93224300 3.15751300 0.17281400
S -2.45047100 4.12563300 -1.73677800
O -1.48617900 3.66495000 -2.68682000
O -3.86292700 4.20052000 -1.99543200
O -1.94651500 5.54280900 -1.20086000
F -4.05808200 1.74795900 -0.48916600
F -2.67184000 1.24564400 1.10076700
F -2.49655700 1.00298100 -2.35938000
F -2.65464900 -0.52241900 -0.80535500
F -0.39896400 -0.50804800 -2.13132600
F 0.01360000 1.57169700 -1.63897300
C 1.72194800 -0.05566300 -0.02766400
C 2.45326700 1.25650100 0.43182100
C 2.87478200 1.26225800 1.93248300
F 1.87062800 0.87766200 2.70922300
F 3.90166000 0.44876900 2.11849800
F 3.23252700 2.49170000 2.27068200
F 1.67672000 2.32181000 0.20662900
F 3.56942400 1.37742400 -0.29106200
F 2.17156100 -1.06770100 0.72557200
F 2.05737100 -0.29300900 -1.29888200
F -0.19578400 0.75440100 1.11743900
F -0.26121800 -1.27633200 0.34697900
H -2.70189900 6.05265400 -0.86007100
30
energy = -2625.42696251
C 0.34015300 0.03129700 -0.09872800
C -0.61567800 0.70078000 0.94845200
C -0.65787600 0.01089300 2.34821900
C -1.22323300 0.86890000 3.52332200
C -2.66851000 1.43233200 3.39640400
F -2.91761700 2.10811100 4.52362400
F -2.73804000 2.26157500 2.36078600
S -4.04978800 0.16991500 3.24144000
O -4.12664500 -0.24933300 1.87678200
O -3.93092400 -0.72925100 4.35734000
O -5.27948900 1.15543200 3.49610800
F -1.17781700 0.09873700 4.61275000
F -0.41835500 1.92262900 3.70301600
F -1.39711600 -1.09834800 2.25691100
F 0.58475300 -0.32450400 2.71354700
F -1.84384900 0.61485200 0.43217900
F -0.30113300 1.99549900 1.08212900
C 1.90275700 0.19854100 -0.05204300
C 2.48892700 1.65402000 -0.03055100
C 2.89732000 2.15990700 1.38695900
F 1.95011300 1.90500800 2.28326700
F 4.01514600 1.56398700 1.76767300
F 3.09726500 3.46711200 1.33677100
F 1.61230900 2.50890400 -0.56702300
F 3.60005400 1.66191300 -0.77145400
F 2.41269900 -0.48520700 0.97821300
F 2.32283900 -0.38067200 -1.18310100
F 0.11076600 -1.28874600 -0.04692900
F -0.04405200 0.49605400 -1.29258700
H -5.47375700 1.20260200 4.44826200
30
energy = -2625.4330069400003
C -0.07152200 0.24176200 0.20955300
C -0.56678400 0.86993600 -1.12539100
C -2.11760300 0.83894400 -1.35789900
C -2.98105000 1.44732400 -0.21549900
C -4.48291400 1.68668500 -0.61501100
F -4.82978900 0.89895800 -1.63700100
F -5.25364200 1.41404000 0.42774400
S -4.84532100 3.45998000 -1.12338500
O -4.94723700 4.24329200 0.06881600
O -3.98589100 3.78483900 -2.23022800
O -6.32854900 3.23877700 -1.67310800
F -2.96469800 0.59689600 0.81344900
F -2.44923300 2.61385700 0.17223000
F -2.33298300 1.53526200 -2.47887900
F -2.49914400 -0.42707900 -1.54543300
F -0.02802400 0.19326300 -2.14721500
F -0.16643100 2.14188900 -1.17949200
C 1.44261300 -0.13680400 0.28975000
C 2.51535700 0.95639500 0.00674700
C 2.53601700 2.20135500 0.93807700
F 1.47056600 2.95945000 0.73082100
F 2.56722800 1.82985000 2.20891800
F 3.62270100 2.90807400 0.66678900
F 2.37252000 1.37782100 -1.25561700
F 3.70191000 0.35139000 0.13440400
F 1.64175100 -0.60019100 1.52975900
F 1.66705300 -1.12528000 -0.58209300
F -0.34222900 1.09336400 1.20721400
F -0.74095600 -0.90030100 0.41495000
H -6.30116000 3.06120000 -2.62919200
30
energy = -2625.43090143
C 0.03234900 0.05990400 0.22774200
C -0.63198900 0.84357600 1.39137400
C -2.19990200 0.87435900 1.39169300
C -2.91597800 -0.50602600 1.33293100
C -4.44195800 -0.44233600 1.70656100
F -4.92567300 0.78575500 1.49974800
F -5.10434700 -1.30543900 0.94998000
S -4.79239000 -0.89751700 3.49693700
O -4.73579800 -2.32269000 3.60110400
O -4.04664600 0.00163800 4.33641000
O -6.33356100 -0.47984600 3.53954700
F -2.82620900 -0.96161600 0.08113300
F -2.30930700 -1.36520800 2.16141600
F -2.55025300 1.49733600 2.52152400
F -2.60854500 1.59697400 0.34471800
F -0.25194100 2.12635000 1.31733800
F -0.21592000 0.32692300 2.54791800
C 1.58948000 0.15416900 0.11866500
C 2.28815400 1.51287300 -0.21333800
C 1.72989400 2.31179400 -1.42301400
F 1.56263200 1.50873600 -2.46435300
F 0.57047600 2.87380600 -1.11305900
F 2.59238900 3.26332300 -1.74324300
F 3.56060100 1.20467300 -0.49421100
F 2.26584700 2.30083100 0.86362700
F 2.10399400 -0.26389400 1.28110700
F 1.93014600 -0.70590800 -0.84834200
F -0.23273400 -1.24005700 0.41393400
F -0.50448300 0.45365700 -0.93446200
H -6.41646600 0.43820300 3.85047800
30
energy = -2625.4308169900005
C 0.16899900 -0.18061200 0.32717800
C -0.72565600 0.80490000 1.13471500
C -2.26787000 0.61813300 0.87286800
C -2.88272500 1.51419400 -0.26677100
C -3.42451700 2.88129000 0.24848300
F -4.57386800 2.68976700 0.88285100
F -2.54852800 3.45829500 1.07312300
S -3.78129300 4.11120400 -1.12820400
O -4.32489300 3.39141900 -2.23954700
O -4.43885400 5.22449600 -0.49761500
O -2.29490000 4.54876000 -1.51115300
F -1.96773300 1.73017600 -1.21861600
F -3.91085000 0.85065600 -0.79050900
F -2.49811100 -0.65876900 0.55624300
F -2.91334100 0.89634100 2.01224500
F -0.37689600 2.06663000 0.84583500
F -0.50025200 0.58640700 2.43106200
C 1.71300600 0.06259600 0.40086900
C 2.36168700 1.34867300 -0.20980500
C 1.91327300 1.73952100 -1.64297300
F 1.96229700 0.68361500 -2.44160300
F 0.67696600 2.21854200 -1.62170000
F 2.72518400 2.67550800 -2.10853900
F 3.67750700 1.10633000 -0.25383300
F 2.14696200 2.38887500 0.59926200
F 2.06253200 0.03690900 1.69313700
F 2.26523100 -0.98169800 -0.22752800
F -0.02029000 -1.40219500 0.83724300
F -0.20722000 -0.18208500 -0.95792700
H -2.06430900 5.36614500 -1.03627800
30
energy = -2625.4282600200004
C 0.20143200 0.40024200 0.46962000
C -0.43952900 1.20128100 -0.73060100
C 0.00612100 2.69763400 -0.80205700
C -0.31726900 3.34462100 -2.18668800
C -0.28221300 4.91121000 -2.16128300
F 0.58000700 5.33994300 -1.24428600
F 0.10258200 5.34727700 -3.36116400
S -1.92871000 5.74995500 -1.80905800
O -2.63619100 5.00551900 -0.81299400
O -1.62499700 7.15126100 -1.69258100
O -2.66030900 5.49532400 -3.20516400
F 0.60721200 2.93585700 -3.05869800
F -1.52109900 2.94448100 -2.61119100
F -0.62494000 3.36552100 0.16449000
F 1.32734500 2.79670900 -0.61299900
F -1.76139100 1.19405000 -0.56414300
F -0.14964900 0.59699100 -1.89163900
C 1.37084000 -0.59324300 0.14925700
C 2.70574700 -0.09364600 -0.48817200
C 3.69103500 0.66935000 0.44412200
F 3.10254300 1.70963100 1.01484800
F 4.15384400 -0.13745000 1.38473900
F 4.70599900 1.10090800 -0.29058700
F 2.43743100 0.68191600 -1.54472800
F 3.35247000 -1.18637700 -0.91001700
F 1.68314400 -1.17547700 1.31673900
F 0.87375100 -1.52123700 -0.67575600
F 0.59315500 1.25952100 1.41812200
F -0.75953900 -0.37710900 0.97930900
H -2.50722100 6.25232300 -3.79699900
30
energy = -2625.4299464900005
C 0.17515200 0.17264000 0.01012400
C -0.65988900 0.95246900 -1.04613100
C -2.22243400 0.83694800 -0.96339200
C -2.92908600 1.42366900 0.31609300
C -3.39513400 0.35048600 1.34584900
F -2.36285000 -0.43808900 1.64396900
F -3.79666500 0.99099100 2.43414100
S -4.86468400 -0.72453600 0.79442600
O -5.69901600 -0.87028700 1.94679000
O -5.33252300 -0.22530500 -0.47189700
O -4.14583600 -2.12675500 0.56724000
F -2.07443100 2.22988300 0.96089900
F -3.98213000 2.14419200 -0.05585800
F -2.68263200 1.49155000 -2.02511500
F -2.54652500 -0.46954400 -1.09454900
F -0.32910500 0.47178800 -2.25293700
F -0.34224600 2.24893000 -0.98861300
C 1.71011900 0.05667400 -0.29460900
C 2.45384200 1.39203500 -0.57616000
C 4.00314400 1.27594500 -0.46994700
F 4.37064700 1.14306700 0.79368300
F 4.43052000 0.22958300 -1.16362500
F 4.54912200 2.37583100 -0.96490500
F 2.04849900 2.31949000 0.29824900
F 2.15436000 1.78559800 -1.81883300
F 2.25343500 -0.51116200 0.79133100
F 1.87711000 -0.75563800 -1.33968800
F 0.02911000 0.74312100 1.20705000
F -0.28021100 -1.08749500 0.06370900
H -3.78024000 -2.16670500 -0.33354700
30
energy = -2625.4360860100005
C 0.63616800 -0.01590200 -0.06957500
C 1.01078800 -1.54285200 0.00909300
C 1.24501500 -2.07242400 1.45498400
C 1.93039400 -3.47871600 1.53670000
C 1.23167400 -4.61058500 0.73345700
F -0.08294700 -4.56396900 0.90398600
F 1.52800100 -4.48183500 -0.56199200
S 1.82915700 -6.31151400 1.27155500
O 3.26692800 -6.28428300 1.22156100
O 1.07283900 -6.71251600 2.41703600
O 1.28349700 -7.15737000 0.03168200
F 3.18700600 -3.36469900 1.11092700
F 1.92685100 -3.82874000 2.82906700
F 2.04427600 -1.22828400 2.11574000
F 0.06577300 -2.14021000 2.07599700
F 2.10518300 -1.76299300 -0.73314400
F -0.00418700 -2.24381300 -0.50842200
C 1.85806200 0.92086000 -0.33189400
C 1.54197300 2.41436900 -0.01336900
C 2.55520900 3.40651400 -0.65565500
F 3.79719500 3.00827700 -0.41311100
F 2.36627300 3.47645900 -1.96339700
F 2.37533800 4.60777300 -0.12905400
F 1.57726500 2.58303500 1.31017700
F 0.32071500 2.71746900 -0.46948200
F 2.89142600 0.54290900 0.42588600
F 2.19394200 0.81168800 -1.62288500
F -0.22061100 0.13924900 -1.07966400
F 0.03616400 0.35168600 1.07136600
H 1.96159500 -7.19815800 -0.66467500
30
energy = -2625.4330808800005
C -0.11614700 0.00160200 0.24658400
C -0.50602500 -1.51143700 0.12037800
C -0.37616800 -2.12717800 -1.30559900
C -1.13069900 -3.47958200 -1.45456200
C -0.81093100 -4.27019800 -2.76447900
F -1.60612600 -5.34652800 -2.75316000
F -1.09832800 -3.51105800 -3.81412000
S 0.94174700 -4.92808900 -2.98029600
O 1.71245200 -3.95316900 -3.68673200
O 1.33059300 -5.51502200 -1.72567100
O 0.62200200 -6.09216700 -4.02460700
F -0.86444100 -4.25663100 -0.40371400
F -2.44430600 -3.22960400 -1.49802200
F -0.86112400 -1.27281000 -2.20991000
F 0.92437800 -2.34685600 -1.54763400
F -1.78773800 -1.59762900 0.50316900
F 0.25066000 -2.21707100 0.96163100
C 1.30263000 0.37313600 -0.27472800
C 1.79180100 1.80165600 0.16174800
C 2.70239700 1.81369400 1.42450200
F 2.14945100 1.12698500 2.41365400
F 3.88248000 1.28874100 1.13566300
F 2.87200300 3.06844900 1.81399200
F 0.73240800 2.58536600 0.39626600
F 2.50132500 2.32269900 -0.84152300
F 2.18484000 -0.53915200 0.15815100
F 1.26098400 0.33737800 -1.60948800
F -1.01806000 0.72566300 -0.41975200
F -0.19353600 0.29125500 1.55138400
H 0.36026600 -6.90182800 -3.55340700
30
energy = -2625.43121748
C -0.13297000 0.13962800 0.25575300
C -0.86869000 -1.16903500 -0.19014300
C -2.39474400 -1.12835200 0.15441800
C -3.12278700 -2.50560300 0.26977400
C -3.11867100 -3.44893500 -0.96756600
F -1.85500200 -3.72309400 -1.30892000
F -3.73019000 -4.57117100 -0.60176300
S -4.01055100 -2.88768100 -2.52491800
O -4.05886500 -4.05508400 -3.36289500
O -5.16169900 -2.12542100 -2.15133000
O -2.94075400 -1.86880300 -3.12419700
F -2.55790500 -3.19424200 1.26912000
F -4.39087800 -2.24436700 0.58942500
F -2.53830700 -0.54487700 1.35210200
F -3.02204300 -0.39762700 -0.76987800
F -0.29351200 -2.20267400 0.42992400
F -0.73406200 -1.32316300 -1.51293300
C 1.25438300 0.32780500 -0.42067400
C 2.09043000 1.55827600 0.06172900
C 2.45400100 1.64485000 1.57480700
F 1.43858700 2.14110800 2.26394800
F 2.76669000 0.44736500 2.05029200
F 3.49573900 2.44994500 1.71604500
F 1.42799400 2.67068400 -0.26951500
F 3.23754200 1.50460100 -0.62455500
F 1.97343500 -0.78414100 -0.22882700
F 1.06897000 0.51318100 -1.73293600
F -0.89481800 1.19830900 -0.03796100
F 0.05170100 0.06900300 1.57949600
H -2.31724300 -2.34371300 -3.70098200
30
energy = -2625.4271942000005
C 0.34231000 0.09125700 -0.07634900
C -0.52249000 0.46154500 -1.33328500
C -0.53302700 1.95252600 -1.76148800
C -1.39493500 2.32797700 -3.01195900
C -2.94267800 2.10627400 -3.01726600
F -3.38668700 2.67398900 -4.13425200
F -3.20177400 0.80205500 -3.05021500
S -3.95811000 2.82627000 -1.60320000
O -5.26942900 3.04084500 -2.13164800
O -3.68934300 2.03705100 -0.43207000
O -3.27813000 4.25854400 -1.43790100
F -1.17870400 3.63450400 -3.20932100
F -0.91765500 1.64341200 -4.05553500
F -0.95205000 2.70464200 -0.72314100
F 0.71704700 2.31230300 -2.07303300
F -1.77352600 0.11541000 -1.01751100
F -0.11083100 -0.27455700 -2.36887300
C 1.89868300 0.32787500 -0.14932500
C 2.42042300 1.66087800 0.49489000
C 2.79736200 1.53136800 2.00201700
F 1.84030300 0.90491800 2.67271700
F 3.93043100 0.86188200 2.13188700
F 2.95362300 2.74547300 2.50726100
F 1.49922300 2.62670400 0.37786500
F 3.51943600 2.03380300 -0.16315900
F 2.49363100 -0.68532900 0.49321000
F 2.28591200 0.29441600 -1.42780300
F -0.16844900 0.72897100 0.98260100
F 0.15619100 -1.22241600 0.08239300
H -2.53899400 4.19943100 -0.80615600
30
energy = -2625.4328646599997
C -0.04378800 -0.04023000 -0.02686600
C -0.56710500 -1.51670500 -0.07673100
C -0.25437600 -2.40553700 1.16382600
C -1.13706400 -3.70670300 1.25870700
C -2.40546100 -3.54585400 2.14938100
F -2.04053000 -3.57079500 3.42574300
F -3.03118300 -2.40537100 1.88060100
S -3.63781000 -4.94890000 1.91592700
O -2.88311400 -6.16944200 1.81116600
O -4.67608700 -4.73243500 2.87549900
O -4.23903500 -4.57835500 0.48649900
F -1.51481700 -4.07552000 0.01624600
F -0.39100100 -4.67271400 1.78097500
F 1.02025100 -2.78972700 1.07378000
F -0.42542000 -1.69579400 2.28701200
F -0.04859900 -2.11249500 -1.15323000
F -1.89536800 -1.42340900 -0.22570000
C 1.47516100 0.13978700 0.22488800
C 2.00954400 1.60846900 0.19023200
C 1.79433200 2.42466400 -1.11907600
F 2.00289100 1.66281600 -2.18379500
F 0.56317100 2.91037000 -1.15934500
F 2.64996300 3.43467600 -1.13682600
F 3.32799700 1.51761100 0.39645100
F 1.44970200 2.28514800 1.19704300
F 1.74966300 -0.31445500 1.45589500
F 2.14841900 -0.58464000 -0.67379100
F -0.33283300 0.47729400 -1.22999700
F -0.71996900 0.62291900 0.91325800
H -3.69298400 -4.98104300 -0.21139800
30
energy = -2625.41527477
C 0.28546100 -0.29329100 -0.14346400
C -0.54997200 0.49148500 -1.24473200
C -0.58774400 -0.06612500 -2.71282600
C 0.74511100 -0.03335700 -3.53008500
C 1.05875300 1.30015600 -4.29903200
F 0.49590400 2.34331500 -3.69706800
F 2.37628000 1.46610800 -4.32096100
S 0.52627100 1.32613800 -6.10896200
O 0.32530800 2.71076200 -6.44318700
O 1.40654700 0.45351700 -6.82268200
O -0.90026900 0.61206100 -6.03118100
F 1.74606500 -0.24975900 -2.66869800
F 0.72291800 -1.03441300 -4.41116600
F -1.01606700 -1.32631100 -2.66958900
F -1.51192500 0.67133000 -3.35412300
F -0.18452700 1.77687400 -1.29367500
F -1.82806200 0.43935700 -0.85392500
C 1.69783200 0.19030600 0.39624200
C 1.88136600 1.70677700 0.74465500
C 2.62409200 2.53135800 -0.36203600
F 2.25376200 2.17577700 -1.59000100
F 2.36077000 3.81608200 -0.19306800
F 3.92624600 2.33157500 -0.24889100
F 2.63545800 1.79015100 1.84330900
F 0.69232200 2.25802600 1.01047900
F 1.85643300 -0.49951300 1.53192800
F 2.67933500 -0.17585500 -0.43242500
F -0.49435400 -0.32525500 0.94150200
F 0.47970600 -1.54681800 -0.57595700
H -1.59926000 1.28582300 -5.96708800
30
energy = -2625.43213462
C 0.42800100 0.13350800 0.40168800
C -0.42980300 0.82510200 1.52992100
C -0.44244300 0.14585500 2.94475800
C 0.90790500 0.08039000 3.71556900
C 0.74302200 -0.41777400 5.18399400
F 0.21701900 0.54706000 5.92614700
F -0.03529100 -1.49938800 5.23509400
S 2.37815800 -0.87830400 5.99654400
O 3.38296400 0.02968900 5.53323900
O 2.07374400 -1.09400700 7.38588000
O 2.64935300 -2.29309000 5.30869100
F 1.73301500 -0.75342400 3.07037400
F 1.43736100 1.30225800 3.76617700
F -1.28720400 0.87170800 3.69186500
F -0.93393000 -1.08877100 2.80983900
F -1.70444700 0.78698100 1.12649200
F -0.06556400 2.10291400 1.67409200
C 1.85674000 0.73562000 0.15151000
C 1.87341100 1.89960200 -0.88785800
C 3.17666000 2.74953400 -0.83621200
F 3.19341300 3.50564800 0.24900600
F 4.23724200 1.95294700 -0.83318300
F 3.22401300 3.52920900 -1.90549800
F 0.83757200 2.71949600 -0.67545800
F 1.77444200 1.37144800 -2.11000700
F 2.37650400 1.16602500 1.31005100
F 2.62782400 -0.24266800 -0.32594200
F 0.57321200 -1.16113800 0.70309600
F -0.25364800 0.22071100 -0.74661900
H 2.31151900 -3.00377800 5.88101500
30
energy = -2625.4307131399996
C 0.35819500 -0.12533000 -0.06612300
C -0.13897800 -1.57554500 0.31459800
C -0.22194100 -2.64761100 -0.82847500
C 1.09957800 -3.07049300 -1.52357600
C 1.02347300 -4.33904900 -2.44094000
F 2.20114500 -4.42894000 -3.04950700
F 0.82809000 -5.40976200 -1.67725200
S -0.30116900 -4.39972000 -3.77227700
O 0.18691700 -5.28614300 -4.78281100
O -1.55975800 -4.57208600 -3.09831200
O -0.21120800 -2.92185500 -4.36276800
F 1.54170200 -2.04535000 -2.25931100
F 1.99862600 -3.36952500 -0.57988000
F -0.76686600 -3.73365700 -0.28108600
F -1.06326100 -2.16012800 -1.76679100
F -1.39766300 -1.45497900 0.74708800
F 0.61205100 -2.05839000 1.30935700
C 1.85207200 0.15195300 0.28765100
C 2.40664800 1.44075200 -0.39455100
C 3.73396300 1.95196100 0.23999000
F 3.50499300 2.47433200 1.43361400
F 4.59682700 0.95149400 0.35706900
F 4.25304300 2.88225400 -0.54570400
F 1.50056500 2.42066900 -0.30198100
F 2.64041900 1.17094500 -1.68111800
F 1.94803900 0.28342700 1.61445200
F 2.60148000 -0.88201800 -0.11096800
F 0.17309000 0.08678500 -1.37801800
F -0.38465000 0.74368400 0.61883300
H -0.80779800 -2.33399200 -3.86533700
30
energy = -2625.43068739
C 0.35843300 -0.12565300 -0.06617000
C -0.13864300 -1.57595300 0.31430900
C -0.22143100 -2.64795100 -0.82884800
C 1.10013600 -3.07087800 -1.52388200
C 1.02393100 -4.33948900 -2.44113400
F 2.20141600 -4.42936200 -3.05004400
F 0.82880000 -5.41017500 -1.67735300
S -0.30117300 -4.40023700 -3.77206400
O 0.18644400 -5.28709800 -4.78244900
O -1.55956600 -4.57220000 -3.09764600
O -0.21118100 -2.92265100 -4.36323500
F 1.54211800 -2.04577500 -2.25978800
F 1.99930200 -3.36970100 -0.58025300
F -0.76648000 -3.73402400 -0.28161200
F -1.06257600 -2.16037400 -1.76727000
F -1.39744600 -1.45546000 0.74650700
F 0.61212500 -2.05886200 1.30922900
C 1.85217200 0.15199200 0.28801300
C 2.40644000 1.44081100 -0.39456500
C 3.73265400 1.95384800 0.24076300
F 3.50217300 2.47633700 1.43403500
F 4.59667500 0.95446500 0.35876400
F 4.25113400 2.88455400 -0.54482400
F 1.49939200 2.42001100 -0.30344200
F 2.64145700 1.17036200 -1.68074400
F 1.94779000 0.28391600 1.61480000
F 2.60183600 -0.88201100 -0.11004300
F 0.17366200 0.08639800 -1.37814500
F -0.38483800 0.74315400 0.61857100
H -0.80713100 -2.33431300 -3.86560900
30
energy = -2625.4355947800004
C 0.01626500 -0.07866400 0.02191300
C -0.51432400 -1.55239400 0.05841200
C -0.11650000 -2.41887600 1.29501500
C -1.10352600 -3.61070800 1.52325200
C -0.48489500 -4.71071800 2.43586300
F 0.39537100 -5.42504700 1.74769000
F 0.11304600 -4.14652700 3.48787800
S -1.75006400 -5.93152600 3.10373800
O -2.71238300 -6.18150100 2.07405900
O -0.99129000 -6.96457700 3.75687800
O -2.45310500 -5.03401600 4.22104800
F -2.21170200 -3.14409100 2.10306300
F -1.40087000 -4.16350200 0.34641500
F 1.10649300 -2.92255300 1.08828100
F -0.10928500 -1.66049200 2.39503900
F -0.09362100 -2.17486000 -1.04396800
F -1.85086000 -1.45165700 0.02970000
C 1.55576900 0.09485800 0.06878100
C 2.07632000 1.56748300 0.11208900
C 1.61477400 2.51301600 -1.03225000
F 1.69530900 1.89657200 -2.20262800
F 0.36620800 2.90470400 -0.82463500
F 2.39862100 3.57966900 -1.04974100
F 3.41063200 1.48759200 0.05870900
F 1.71325900 2.11393100 1.27569600
F 2.01333200 -0.48554000 1.18821400
F 2.08695500 -0.51593600 -0.99344700
F -0.41968400 0.42688100 -1.14120000
F -0.53044600 0.60422800 1.03115300
H -2.04197000 -5.21033500 5.08515000
30
energy = -2625.4346742400003
C 0.01768400 0.02198200 -0.15402200
C -0.62799400 -1.40230200 -0.02654800
C -0.32919600 -2.40025000 -1.18059100
C -0.97071700 -3.81315100 -0.97057700
C -0.98698700 -4.64368700 -2.28914400
F -1.95916700 -4.20769100 -3.07917200
F 0.18589400 -4.54017600 -2.91777000
S -1.30683900 -6.47675500 -2.01363500
O -2.26222700 -6.60847100 -0.95594400
O -1.47955700 -7.04511200 -3.32378200
O 0.11383700 -6.93146300 -1.44547200
F -0.24798800 -4.46547700 -0.05608100
F -2.22752000 -3.68994200 -0.54716600
F -0.78432600 -1.87892100 -2.32617300
F 0.99518500 -2.57471400 -1.26281400
F -1.94688600 -1.18551400 0.01988500
F -0.22934800 -1.95627800 1.12226700
C 1.56262500 0.09413000 -0.32135500
C 2.21555800 1.46619300 0.04399900
C 1.64565300 2.71361100 -0.68501200
F 1.59922300 2.50192400 -1.99241200
F 0.42586800 2.98705600 -0.24413300
F 2.43172300 3.75001000 -0.44064000
F 3.50818800 1.36231300 -0.28686100
F 2.11544200 1.66403100 1.36025300
F 2.13289300 -0.82099000 0.47225500
F 1.86402800 -0.17027700 -1.59712700
F -0.53815100 0.63868900 -1.20314200
F -0.32284400 0.66762000 0.96922300
H 0.65896600 -7.27817800 -2.17309000
30
energy = -2625.43330154
C 0.53208900 0.21161800 -0.36889900
C -0.15611200 -1.19104700 -0.49947700
C -0.19326600 -2.09008400 0.78496000
C -1.42970200 -3.03991000 0.94917100
C -1.58703300 -4.13240400 -0.14339300
F -1.50685700 -3.58790600 -1.35536300
F -0.63230700 -5.04217300 0.00449600
S -3.23297800 -5.03847300 -0.03392200
O -3.18108500 -6.08115700 -1.01149400
O -3.51351700 -5.25663600 1.35985700
O -4.21678400 -3.91878900 -0.59896200
F -1.27085000 -3.64990000 2.12211100
F -2.55420700 -2.30111600 0.99516700
F 0.89401000 -2.86537400 0.79608800
F -0.19584300 -1.30774100 1.87114500
F 0.47862900 -1.85895800 -1.46625300
F -1.41394000 -0.93694500 -0.88784400
C 2.05255100 0.17908900 -0.04096300
C 2.62956500 1.58406600 0.31102700
C 4.18509400 1.63298500 0.28017300
F 4.68374300 0.61901100 0.97510800
F 4.62421700 1.56700100 -0.96610000
F 4.59080000 2.77069400 0.82152700
F 2.22813100 1.90830500 1.54249200
F 2.16909000 2.48854600 -0.56016800
F 2.25678700 -0.62567500 1.00993500
F 2.70107700 -0.31219000 -1.10244100
F 0.37964300 0.79741300 -1.56136200
F -0.10683400 0.93460200 0.55631300
H -4.50379100 -3.33850800 0.12798600
30
energy = -2625.43309882
C 0.05495300 0.09310500 0.11840700
C -0.67637500 -1.28941400 0.20048200
C -2.23306000 -1.17306500 0.17667600
C -2.97656800 -2.54373600 0.27006100
C -4.49924900 -2.46430900 0.62658800
F -4.97804000 -3.69861500 0.51725600
F -4.62025200 -2.04194000 1.88230700
S -5.59530700 -1.34425100 -0.41026800
O -6.92780900 -1.84318300 -0.26675300
O -5.21090200 0.00867000 -0.11024200
O -5.11141700 -1.71714800 -1.88227900
F -2.84463200 -3.16219400 -0.90715100
F -2.42260400 -3.29670300 1.22498900
F -2.61447600 -0.37840700 1.17429100
F -2.59526400 -0.62394800 -1.00386200
F -0.30390300 -1.86932900 1.34259700
F -0.30266300 -2.04957600 -0.83723400
C 1.56991300 -0.05978200 -0.23907000
C 2.39560400 1.20480700 0.14654500
C 3.77846700 1.27721000 -0.56391900
F 4.41172600 0.11809000 -0.43830800
F 3.62420000 1.55432100 -1.84839400
F 4.50371600 2.23050900 -0.00081500
F 2.60663500 1.19113800 1.46413900
F 1.69958600 2.29910000 -0.18446500
F 2.07828900 -1.11243600 0.40922800
F 1.67069200 -0.26242100 -1.55786000
F -0.51565300 0.85955400 -0.81460300
F -0.05551800 0.68942400 1.31000200
H -4.36581600 -1.14391800 -2.13593400
30
energy = -2625.4316883800007
C 0.30536600 -0.21552100 0.01889400
C -0.65410000 0.42407100 -1.02787700
C -0.59029900 -0.05881400 -2.51290000
C -0.80609100 -1.57909400 -2.77130900
C -1.13294100 -1.94868600 -4.25530100
F -0.19703800 -1.42378700 -5.04338600
F -1.09361300 -3.27412800 -4.33194900
S -2.83259700 -1.46321200 -4.93535100
O -3.10180200 -2.40537600 -5.97748600
O -3.71548200 -1.22713200 -3.82445500
O -2.49912400 -0.07853800 -5.64735800
F 0.34335600 -2.20300600 -2.48541400
F -1.76900100 -2.04741400 -1.98001700
F -1.57821900 0.62193300 -3.14089200
F 0.57302300 0.31102100 -3.04480900
F -0.42364300 1.74446500 -1.05206500
F -1.89570500 0.21221800 -0.58643800
C 1.84929200 -0.06297900 -0.16882900
C 2.40181000 1.38844500 -0.28547100
C 3.93323600 1.47896500 -0.01223100
F 4.18265200 1.33556700 1.27852200
F 4.57241700 0.53576100 -0.69119100
F 4.36828900 2.66581700 -0.40596700
F 1.77867100 2.18440900 0.58869200
F 2.18143900 1.83005500 -1.52773800
F 2.40106000 -0.63545100 0.91029400
F 2.21594600 -0.74472400 -1.25790700
F -0.01850600 0.31919400 1.19942000
F 0.05167600 -1.53042600 0.05501600
H -2.60098300 0.65042300 -5.01192900
30
energy = -2625.4307223200003
C 0.28605600 0.16260800 0.19057700
C -0.39451700 -1.24764600 0.27030400
C -0.29079000 -2.03681700 1.63324500
C 0.78294300 -3.16324000 1.63185800
C 1.15681100 -3.73845400 3.03544600
F 1.97202000 -4.76811400 2.82619900
F 1.79083200 -2.80830100 3.74812400
S -0.26902000 -4.36345600 4.07826900
O -0.96377300 -3.21916500 4.60523900
O -0.90176400 -5.42359800 3.35487400
O 0.58476700 -5.02169900 5.25707600
F 0.34593500 -4.16795900 0.87568700
F 1.92552800 -2.68388000 1.11987700
F -0.03949600 -1.18701200 2.63491800
F -1.46950400 -2.62692000 1.84939000
F 0.07116100 -2.01323100 -0.72302500
F -1.69139400 -1.00849500 0.05454800
C 1.82886000 0.23237300 0.33805400
C 2.47930800 1.60924100 -0.02303100
C 1.90354900 2.86800000 0.68244200
F 0.73007500 3.18938200 0.15731900
F 1.75890100 2.64496100 1.98118200
F 2.74056100 3.87864800 0.50773200
F 2.39094100 1.79463000 -1.34201600
F 3.76854300 1.50693800 0.32139300
F 2.15807500 -0.06612800 1.59978200
F 2.38206600 -0.66081500 -0.49117300
F -0.02545000 0.64822500 -1.01899000
F -0.26814100 0.93866800 1.12973000
H 0.64599900 -4.39540200 5.99919400
30
energy = -2625.4275692700003
C 0.38775300 -0.32384800 -0.10472700
C -0.46714100 0.06907800 -1.35710500
C 0.15689100 -0.31148500 -2.73893900
C -0.52348500 0.43458900 -3.92057300
C -0.14432000 -0.09167400 -5.34142700
F -0.76983500 0.70643000 -6.21474400
F 1.16875800 0.00489800 -5.50590400
S -0.66210300 -1.84781700 -5.78369400
O 0.40223900 -2.73706700 -5.43744100
O -2.02551500 -2.00775800 -5.35320900
O -0.63036900 -1.70203100 -7.37294700
F -1.84838500 0.37775400 -3.77639200
F -0.12797700 1.71326400 -3.89220700
F 1.46036400 -0.02395900 -2.75813100
F -0.00480300 -1.62734600 -2.91744700
F -0.74672800 1.37786900 -1.32618300
F -1.61212600 -0.61040900 -1.24890100
C 1.67078100 0.47254400 0.32882600
C 1.53157100 2.01736900 0.56894600
C 2.00998500 2.89781100 -0.62564000
F 1.52800300 2.44769000 -1.77938100
F 1.58943100 4.13883400 -0.44152400
F 3.33123200 2.89083200 -0.68423300
F 2.29702700 2.34353300 1.61343800
F 0.26225800 2.32257900 0.85731900
F 2.01546200 -0.08117600 1.49724600
F 2.66327100 0.25883300 -0.54184500
F -0.44677600 -0.27911800 0.93945700
F 0.78723700 -1.58996100 -0.29439400
H -1.48209100 -1.35940500 -7.69436700
30
energy = -2625.42704278
C 0.20916600 0.14126500 0.19998600
C -0.43169800 0.65915500 -1.12527500
C -0.23174700 -0.14341700 -2.45326500
C -0.90171900 -1.57635600 -2.56152000
C 0.12071500 -2.74771200 -2.51504000
F 0.83192800 -2.75512700 -3.63523400
F 0.93296500 -2.62843200 -1.46440500
S -0.68840600 -4.44207100 -2.38153200
O -1.88705800 -4.43796200 -3.16319300
O 0.37708200 -5.39292500 -2.55442100
O -1.11618000 -4.42658500 -0.84391500
F -1.79762600 -1.74651300 -1.58345500
F -1.52173500 -1.64625100 -3.73656800
F -0.78287500 0.62042300 -3.39874100
F 1.08244800 -0.24186600 -2.70048500
F 0.04694200 1.88791100 -1.35876800
F -1.74672400 0.75199800 -0.90381800
C 1.75905900 0.15878500 0.39809000
C 2.55620400 1.49727200 0.30088700
C 2.07892900 2.67558200 1.19549900
F 0.94697100 3.18743600 0.73744500
F 1.89836400 2.25904700 2.44041100
F 3.00845800 3.61812300 1.18355800
F 2.58212100 1.90358800 -0.97084500
F 3.80373700 1.19615500 0.68324300
F 1.95644700 -0.32910500 1.63014800
F 2.31609400 -0.67496300 -0.48641900
F -0.31350900 0.88388600 1.18492000
F -0.17204300 -1.13235200 0.37487800
H -0.41979800 -4.84280800 -0.30672600
30
energy = -2625.4318801800005
C 0.30982800 -0.15707700 -0.06586700
C -0.16252400 -1.60120900 0.36248500
C -0.26267000 -2.69917800 -0.75162300
C 1.04614300 -3.11828400 -1.46910800
C 0.92551500 -4.37573500 -2.39141800
F 2.09560900 -4.49023000 -3.03050600
F 0.71861300 -5.45575300 -1.65169900
S -0.39144300 -4.31615600 -3.72547400
O -1.63928600 -4.69694400 -3.13953900
O -0.18166100 -3.10550100 -4.47378300
O 0.10929600 -5.55706000 -4.59602100
F 1.49089200 -2.10249300 -2.21062700
F 1.96228500 -3.43793200 -0.54627900
F -0.75611000 -3.78839600 -0.14985900
F -1.13263700 -2.27402800 -1.67497600
F -1.40826500 -1.48386100 0.83113300
F 0.62442500 -2.05324700 1.34655400
C 1.80846400 0.14221400 0.25132500
C 2.33995200 1.40964800 -0.48675200
C 3.67080500 1.95719900 0.10863800
F 3.45292300 2.52938700 1.28141200
F 4.54379800 0.96940300 0.25881700
F 4.17502300 2.85659300 -0.72210900
F 1.42625900 2.38430900 -0.41667600
F 2.55856900 1.09472800 -1.76539800
F 1.92801600 0.32324200 1.57101000
F 2.56283500 -0.89853500 -0.12124100
F 0.09453800 0.02093300 -1.37559100
F -0.42353400 0.72401300 0.61613700
H 0.75399000 -5.25678900 -5.25982500
30
energy = -2625.4297738700006
C -0.06321000 0.18731200 -0.12207500
C -0.63095400 -1.27520100 -0.06539600
C -0.11992300 -2.38783400 -1.04254100
C -0.46350100 -2.20751700 -2.54741000
C 0.24810600 -3.18667800 -3.54151800
F -0.28144500 -2.95572800 -4.73768700
F 1.54790400 -2.90448200 -3.56061300
S 0.12003500 -5.03393800 -3.21818700
O 0.30731500 -5.67579800 -4.48226300
O 0.92133000 -5.30758000 -2.05573400
O -1.42258100 -5.17580100 -2.84468300
F -1.78435500 -2.33622600 -2.69358800
F -0.09424200 -0.97952900 -2.92947000
F 1.19220900 -2.54785400 -0.89162800
F -0.74722700 -3.51401900 -0.62825700
F -1.95434400 -1.17034100 -0.24206700
F -0.38737500 -1.74217300 1.16320600
C 1.48728800 0.30624300 -0.15829800
C 2.02805500 1.74894900 0.15577500
C 2.46188500 1.96995500 1.63501200
F 1.51530400 1.56938600 2.47104800
F 3.57548400 1.29912000 1.88336300
F 2.68459900 3.26164600 1.82279900
F 1.09054300 2.65323900 -0.15101700
F 3.10207700 1.96376000 -0.60660700
F 2.00859400 -0.55769400 0.72539800
F 1.89075500 -0.02985700 -1.38665200
F -0.57401100 0.81345900 -1.18205700
F -0.51645600 0.78107500 0.98992900
H -1.54012400 -5.04282200 -1.88677500
30
energy = -2625.432899
C 0.06889600 0.15810200 -0.24376300
C -0.55971200 0.87547000 -1.48038000
C -0.30018200 0.22386000 -2.87600500
C -1.29097800 0.71075700 -3.99836800
C -2.54125800 -0.20449100 -4.18337900
F -2.18851500 -1.26815700 -4.88923100
F -3.03139900 -0.58447300 -3.00715900
S -3.96843800 0.65355600 -5.07596800
O -4.66416800 -0.36781800 -5.79672400
O -4.59348300 1.53228400 -4.12449600
O -3.17875500 1.53317800 -6.14988500
F -1.69020400 1.96794400 -3.72854300
F -0.62452700 0.72011600 -5.15153900
F 0.93310700 0.55587600 -3.26017500
F -0.38355500 -1.10968000 -2.79041900
F -0.09668000 2.13096100 -1.51548400
F -1.87787200 0.90308800 -1.25383700
C 1.61757800 -0.02831500 -0.19799900
C 2.48854600 1.26276700 -0.25763200
C 3.94608800 1.03508200 0.24509200
F 3.96805700 0.91338700 1.56177900
F 4.45251800 -0.06015000 -0.30594200
F 4.68615300 2.07631100 -0.10346200
F 1.93767000 2.21854000 0.49674500
F 2.55353100 1.68067200 -1.52494700
F 1.87670500 -0.65035400 0.96084800
F 1.97047300 -0.82907000 -1.21052900
F -0.30099300 0.86456400 0.82909400
F -0.46353300 -1.06547500 -0.15672900
H -3.03104500 2.42706500 -5.79404200
30
energy = -2625.4335599
C -0.01049700 0.07555200 -0.20578100
C -0.71829500 -1.27357500 -0.53711900
C -2.25200000 -1.17513400 -0.84711800
C -3.11189400 -0.46595100 0.23938700
C -4.65952000 -0.67563000 0.06519700
F -5.27949900 0.43133700 0.45453600
F -4.95107800 -0.92126200 -1.20959900
S -5.38763900 -2.09071700 1.06981400
O -6.77940100 -2.11824300 0.74050900
O -4.51625600 -3.22887500 0.95510200
O -5.26305700 -1.48493800 2.53995100
F -2.74830500 -0.91032700 1.45945000
F -2.86272400 0.84272100 0.17588700
F -2.41155100 -0.51725500 -1.99794800
F -2.68574000 -2.42992300 -0.99022600
F -0.55106600 -2.10866400 0.49005900
F -0.15193200 -1.79758000 -1.63081400
C 1.54182000 -0.00332800 -0.32044300
C 2.32834500 1.15267900 0.37764000
C 1.93171600 2.59660100 -0.03438600
F 1.88754200 2.70205100 -1.35453000
F 0.74348400 2.90480300 0.46810300
F 2.82990400 3.44418200 0.44035800
F 3.61490900 0.97767900 0.05641900
F 2.18681300 1.03900500 1.70076500
F 1.95534200 -1.14309700 0.24886700
F 1.87386500 -0.00785800 -1.61317000
F -0.43832700 1.01860000 -1.05431900
F -0.34217600 0.41862200 1.04650200
H -4.41351900 -1.75490500 2.93000800
30
energy = -2625.4329138300004
C -0.05441000 0.18010200 -0.11316500
C -0.64279600 -1.27349800 -0.10002000
C -0.20404000 -2.33979200 -1.15804400
C -0.58844700 -2.05316200 -2.63861400
C 0.02665100 -3.09183200 -3.62699800
F 1.30942000 -2.79452300 -3.83520900
F -0.07617000 -4.32523100 -3.15026700
S -0.83693200 -3.03693300 -5.29764000
O -2.00786600 -3.85489500 -5.22528000
O -0.83724900 -1.66159500 -5.72120800
O 0.24515200 -3.84257000 -6.15221900
F -1.91911800 -2.08773100 -2.75216200
F -0.13800400 -0.84749800 -2.98898800
F 1.12285400 -2.51482200 -1.08997000
F -0.81159700 -3.47262900 -0.79141900
F -1.97043500 -1.13641600 -0.20635900
F -0.34959300 -1.80516400 1.09140100
C 1.49671800 0.28753200 -0.18453800
C 2.05789200 1.70657200 0.19371200
C 2.51747300 1.84980200 1.67510400
F 1.58684000 1.40937300 2.50826200
F 3.63427600 1.16543800 1.86873100
F 2.74803600 3.12998400 1.92455800
F 1.12882500 2.63657700 -0.05485600
F 3.12486400 1.94685200 -0.57237400
F 2.03760800 -0.62573500 0.63608200
F 1.86863700 0.01838800 -1.43905600
F -0.58286800 0.85498600 -1.13449700
F -0.46981400 0.73643200 1.03333300
H 0.89701400 -3.22497100 -6.52653700
30
energy = -2625.42755956
C 0.03486300 0.39541800 0.02523400
C -0.56120600 0.82145900 -1.36603900
C -0.33596100 -0.14762500 -2.58634100
C 0.81994000 0.28956800 -3.53942400
C 1.34739800 -0.80550300 -4.52396200
F 2.21552200 -0.20594100 -5.33087000
F 1.96262300 -1.75398700 -3.82342200
S 0.08571200 -1.68284600 -5.60811000
O 0.80739200 -2.18732500 -6.73485600
O -0.71338800 -2.50204300 -4.73730300
O -0.78666300 -0.45287600 -6.12320800
F 0.38645000 1.33022100 -4.25564700
F 1.87889200 0.67389200 -2.81423100
F -0.14512200 -1.39107300 -2.15211500
F -1.46497100 -0.12010700 -3.32659500
F -0.14403200 2.04571700 -1.69830300
F -1.88087500 0.87635800 -1.15106800
C 1.54927700 0.04872500 0.21681700
C 2.51730100 1.27090400 0.26986400
C 4.00221700 0.87347400 0.02807200
F 4.32061400 -0.17476300 0.77525800
F 4.19015100 0.57625700 -1.24839500
F 4.78203900 1.89171300 0.35375800
F 2.42162200 1.83149200 1.47639000
F 2.17909100 2.17179100 -0.65914900
F 1.64112600 -0.57413100 1.39507600
F 1.94205500 -0.80207000 -0.74168000
F -0.24479600 1.40325100 0.86447300
F -0.64787100 -0.69048800 0.40228800
H -1.50720000 -0.27449500 -5.49190800
30
energy = -2625.43327581
C 0.10870800 -0.03543200 -0.10358500
C -0.50812700 -1.45673500 0.01553400
C -2.07512500 -1.53435000 0.07169100
C -2.86643000 -0.88907500 -1.10403400
C -4.32792500 -1.40437900 -1.31026000
F -4.84287700 -0.69696300 -2.31282100
F -4.31404700 -2.69524200 -1.64208400
S -5.53341300 -1.20664100 0.11301700
O -5.30384000 0.06279500 0.73154500
O -6.80714300 -1.62803000 -0.40347500
O -4.98436900 -2.32692700 1.10839500
F -2.92801600 0.42836400 -0.91508400
F -2.22532300 -1.15036800 -2.25234700
F -2.35960000 -2.84566700 0.10769800
F -2.47645400 -0.96381500 1.20897100
F -0.09434100 -2.00792300 1.16211500
F -0.07209200 -2.19451100 -1.01052200
C 1.66937800 -0.04033200 -0.21501400
C 2.28217100 1.36102800 0.09244400
C 3.73670200 1.52620000 -0.43748000
F 4.46932200 0.47696500 -0.08665600
F 3.73833000 1.63977200 -1.75567500
F 4.26647100 2.61901500 0.08975100
F 2.30018900 1.53449100 1.41573400
F 1.52561700 2.30973500 -0.47175100
F 2.18933800 -0.92170600 0.64341300
F 1.99635400 -0.39725300 -1.46255000
F -0.36828000 0.54364100 -1.21179300
F -0.25407000 0.67703400 0.96843300
H -5.42001500 -3.17691700 0.92213400
30
energy = -2625.4279777700003
C 0.17079800 0.19932600 -0.41537000
C -0.65800300 -1.11883800 -0.29734700
C -2.19785500 -0.90154800 -0.05509500
C -2.79976300 -0.83205300 1.39656500
C -2.58332300 0.43418900 2.29574300
F -2.50414700 1.53680100 1.56601600
F -3.64131100 0.53659800 3.10802000
S -1.10179400 0.38478600 3.46081200
O -0.03138400 -0.34432100 2.85207900
O -0.97212700 1.72531900 3.96491100
O -1.69542800 -0.55222100 4.60652500
F -4.12512100 -0.89388400 1.19841700
F -2.41815500 -1.91336500 2.08276000
F -2.58564000 0.19125800 -0.72596800
F -2.79805600 -1.97244900 -0.59082300
F -0.15266200 -1.90531200 0.65423100
F -0.54807300 -1.74432600 -1.47430200
C 1.70806800 -0.03909400 -0.27345800
C 2.54397600 1.14561000 -0.84848800
C 4.01969200 1.15632000 -0.35328100
F 4.08323100 1.52503200 0.91501400
F 4.55012200 -0.05275300 -0.48699000
F 4.71318400 2.01507600 -1.08587300
F 1.97533800 2.30214500 -0.48589700
F 2.55829400 1.05508400 -2.18046100
F 2.00666400 -0.19737800 1.01607000
F 2.03575200 -1.14876600 -0.94656000
F -0.07007400 0.73297900 -1.61803500
F -0.22425100 1.06684700 0.52559300
H -2.18392600 -0.01657800 5.25545400
30
energy = -2625.43615964
C 0.04989000 -0.11985500 -0.01599200
C -0.45561900 -1.60069500 0.06045300
C -0.03783000 -2.43468000 1.31418700
C -1.02186200 -3.61621300 1.59229300
C -0.38899400 -4.68642100 2.53188200
F 0.42602700 -5.47283700 1.82968600
F 0.28482700 -4.09806000 3.51306200
S -1.70201700 -5.79220100 3.29918300
O -2.23044200 -5.13406000 4.45362200
O -2.50539800 -6.29109200 2.21427000
O -0.75292300 -6.96445100 3.82418700
F -2.12504700 -3.14058000 2.17545900
F -1.33518400 -4.20417600 0.43626300
F 1.17559700 -2.95898900 1.09802700
F -0.00286000 -1.64738600 2.39105000
F -0.03208200 -2.24220200 -1.03053900
F -1.79374500 -1.52135800 0.03820700
C 1.58735400 0.07905800 -0.01504400
C 2.07766900 1.56044400 0.06864700
C 1.50621000 2.54780700 -0.98551500
F 1.56157100 2.01417900 -2.19744800
F 0.24896200 2.84704900 -0.69193400
F 2.22512100 3.65904500 -0.96853100
F 3.40587000 1.52239600 -0.08577000
F 1.78782300 2.03612500 1.28245300
F 2.09687800 -0.53699600 1.06200300
F 2.09037000 -0.47791700 -1.11943500
F -0.42302200 0.35766800 -1.17650000
F -0.48132000 0.57488400 0.99345100
H -0.64725600 -7.63939500 3.13159500
30
energy = -2625.4324924
C 0.00972300 0.39361000 0.04881900
C -0.39516300 1.06890200 1.39859300
C -0.19664700 0.21709600 2.69017500
C -0.95467300 0.68760500 3.97364000
C -0.65526800 2.11310600 4.52916700
F -1.01969700 3.01645700 3.62058800
F -1.40152900 2.25563400 5.62129700
S 1.10595400 2.49520800 5.08852200
O 1.00435300 3.71115700 5.83517100
O 1.67440700 1.28252500 5.61152100
O 1.80435800 2.86629900 3.71016200
F -2.26728200 0.64182800 3.72074400
F -0.66575800 -0.20192800 4.92381800
F -0.59673800 -1.03164100 2.45218100
F 1.12114600 0.20151300 2.98168800
F -1.68549600 1.38954400 1.28739900
F 0.33039300 2.19216000 1.51424900
C 1.49279400 -0.06366800 -0.13475000
C 2.60093700 1.02389900 0.02519300
C 3.95914100 0.61132600 -0.62152200
F 4.26544800 -0.63171000 -0.27807100
F 3.88739600 0.70121400 -1.93766800
F 4.90347600 1.42826700 -0.18313500
F 2.83149900 1.22027400 1.33750000
F 2.20731100 2.17103600 -0.52611800
F 1.73852800 -1.05205000 0.73170700
F 1.57259700 -0.54560900 -1.38208800
F -0.74865100 -0.69085900 -0.13094700
F -0.27192100 1.28095700 -0.91017700
H 2.13842100 2.06950800 3.25895200
30
energy = -2625.43067445
C 0.05053000 0.34193900 -0.29381500
C -0.81415900 -0.92955800 0.00314100
C -2.36074300 -0.70400000 -0.20278400
C -3.24561800 -0.45070500 1.06859800
C -2.90915100 0.79498100 1.92793000
F -1.67374300 0.69665400 2.42725600
F -3.01190300 1.88938700 1.18418700
S -4.04089400 1.04215600 3.41562100
O -3.65745800 2.31357600 3.96778100
O -5.38222600 0.70368300 3.05227600
O -3.50027100 -0.11791700 4.36870500
F -4.48830000 -0.29842900 0.60478900
F -3.18824400 -1.53345000 1.84903700
F -2.55357000 0.30933100 -1.05610200
F -2.85294900 -1.82120300 -0.74443700
F -0.59174400 -1.36852500 1.24864100
F -0.42039500 -1.87234100 -0.85425500
C 1.50958500 0.23059100 0.23009500
C 2.45460000 1.42760500 -0.11569500
C 2.67050700 1.77016800 -1.62009100
F 2.77502900 0.66226700 -2.34054000
F 1.66252500 2.49807000 -2.07491900
F 3.78747200 2.47049400 -1.74096800
F 3.64677000 1.10635400 0.39920300
F 1.98864700 2.52061800 0.49618900
F 1.47624700 0.17413800 1.56720000
F 2.04828600 -0.89595600 -0.24747200
F 0.08651600 0.48894300 -1.62358300
F -0.51123500 1.42565100 0.25542300
H -2.79577700 0.22946300 4.94293800
30
energy = -2625.42993652
C 0.19724500 0.08651200 0.02912800
C -0.39488900 -1.33462400 0.33104200
C -0.25736000 -2.37719900 -0.80997600
C -0.92508500 -3.77702600 -0.58937700
C -2.48837100 -3.84450200 -0.43072600
F -3.06227300 -2.74650000 -0.91141300
F -2.93309600 -4.89772000 -1.10556800
S -3.08822100 -4.07261200 1.34259200
O -2.34017200 -3.20285400 2.21036600
O -4.51659800 -4.07999000 1.26553200
O -2.61637500 -5.57629800 1.59031000
F -0.60246900 -4.49036000 -1.66984700
F -0.34950700 -4.35434200 0.48329600
F -0.74031100 -1.85818100 -1.94207900
F 1.04793100 -2.64200500 -0.96485600
F -1.69590900 -1.12863400 0.56873400
F 0.18913200 -1.82271300 1.42584700
C 1.68317000 0.14570700 -0.42008400
C 2.36807500 1.54559600 -0.30623500
C 1.65007600 2.72226600 -1.02163500
F 1.33609100 2.38219000 -2.26361400
F 0.54633900 3.05209500 -0.36607700
F 2.46025900 3.76844500 -1.04935900
F 3.57880600 1.41323000 -0.86071100
F 2.50854800 1.85938400 0.98356600
F 2.40157900 -0.68908100 0.34139900
F 1.75239500 -0.24340600 -1.69818500
F -0.54819400 0.65243700 -0.92661700
F 0.06448700 0.78329700 1.16444300
H -1.72816600 -5.57246000 1.98799000
30
energy = -2625.43150523
C 0.12418200 0.11128700 -0.29085000
C -0.51885000 0.68320900 -1.59653500
C -2.05247500 0.91099100 -1.48208800
C -2.76453500 1.40494300 -2.78937600
C -2.63229300 0.49789300 -4.04796000
F -1.48184400 0.74691100 -4.66182100
F -2.69945800 -0.79046400 -3.71121500
S -3.97223000 0.80796200 -5.33247000
O -4.23668600 2.21424400 -5.36797500
O -3.59024000 0.03800200 -6.48623700
O -5.21626600 0.08973900 -4.63645500
F -4.06204200 1.50030700 -2.47365900
F -2.28717800 2.61013500 -3.09520500
F -2.62646100 -0.22909300 -1.08350100
F -2.27802400 1.86270300 -0.57135900
F -0.29734700 -0.20817100 -2.57180900
F 0.05534100 1.84664600 -1.92083600
C 1.69983300 0.17970300 -0.27893900
C 2.36858300 1.34060800 0.52611200
C 2.08211900 2.79864700 0.07850200
F 2.40100700 2.95694800 -1.19702300
F 0.80290100 3.10161500 0.25385700
F 2.81807900 3.61749500 0.81355100
F 3.68917900 1.15267700 0.40765500
F 2.02305300 1.22106500 1.81126000
F 2.13720300 -0.94322800 0.29869600
F 2.15246900 0.21928800 -1.53904400
F -0.35768600 0.75310700 0.77985100
F -0.23201000 -1.17250100 -0.21366200
H -5.30959600 -0.81097900 -4.99257900
30
energy = -2625.43014733
C -0.00976400 0.08173100 0.06869400
C -0.50594700 -1.39161100 0.25063400
C -2.06329800 -1.50147000 0.18693400
C -2.58980400 -2.97492300 -0.01318100
C -3.03473200 -3.38686800 -1.45310100
F -3.44210100 -4.65906900 -1.37753900
F -4.05218400 -2.62347100 -1.83290200
S -1.74321500 -3.35392800 -2.80962100
O -1.47275700 -1.98708800 -3.13477300
O -0.73333900 -4.31864300 -2.46614400
O -2.64461100 -3.95058400 -3.98429400
F -1.67200000 -3.84634000 0.41529800
F -3.69236900 -3.11068100 0.73184900
F -2.54256500 -1.05833400 1.35023100
F -2.52714200 -0.72498300 -0.79896000
F -0.11208100 -1.86560800 1.43550100
F 0.03680700 -2.13264800 -0.72173100
C 1.46250200 0.29662100 0.51984100
C 2.04632300 1.72988500 0.29491100
C 2.05485700 2.28851400 -1.15887500
F 2.39372900 1.34161600 -2.02155200
F 0.86160600 2.76760900 -1.47425800
F 2.93832100 3.27329900 -1.23024000
F 3.31662400 1.67178700 0.71115800
F 1.36893500 2.58799300 1.06402800
F 1.54220500 0.07886800 1.83782700
F 2.23486300 -0.58598400 -0.12287000
F -0.10272500 0.37979900 -1.23081300
F -0.79466000 0.90376000 0.77574100
H -2.54053300 -4.91747600 -4.01645400
30
energy = -2625.4322483800006
C 0.17367100 1.57296000 0.24232900
C -0.90031500 1.23473100 -0.86027900
C -0.48079100 1.66068700 -2.30526200
C -1.34851900 0.97137200 -3.40225900
C -1.31638500 1.62935600 -4.81875900
F -2.05539900 0.86214900 -5.61588300
F -1.84886300 2.85047500 -4.76131000
S 0.34661100 1.78822100 -5.66988600
O 1.11114900 0.60999100 -5.39732300
O 0.05716300 2.26787200 -6.99399100
O 0.98333900 2.97985000 -4.81916700
F -0.96271500 -0.29653600 -3.52680400
F -2.63269700 1.01079400 -3.01511100
F -0.62683700 2.98820400 -2.40014100
F 0.79605200 1.33722500 -2.52285200
F -2.01628300 1.89708800 -0.55176700
F -1.15676000 -0.08038600 -0.84231500
C 1.13682000 0.39049900 0.57528500
C 2.38517900 0.81136800 1.43236600
C 3.67031000 1.10224900 0.60336100
F 4.16461200 -0.02658800 0.12154800
F 3.40703900 1.92727900 -0.39965100
F 4.57069900 1.66338900 1.39678900
F 2.67146400 -0.18840400 2.26899700
F 2.08764400 1.90347800 2.14763600
F 0.43718100 -0.50507300 1.27467100
F 1.56463900 -0.18223500 -0.55818900
F 0.87679600 2.64293200 -0.15439000
F -0.48187300 1.87950800 1.36342600
H 0.75694100 3.83373900 -5.22743700
30
energy = -2625.4225357299997
C -0.20881000 0.33581500 -0.40194900
C -0.64761400 0.75317300 1.06126000
C -0.66928100 2.27433900 1.43589400
C -1.53902800 2.66709800 2.68038600
C -1.24734000 2.00690700 4.06365600
F -2.09495400 2.55751000 4.92521600
F -1.48179400 0.69812600 3.97787200
S 0.47842100 2.19053300 4.80704800
O 0.30107500 2.12588200 6.22458500
O 1.35376700 1.31943000 4.07186300
O 0.82643500 3.70365700 4.45006800
F -1.37958000 3.99099600 2.81591900
F -2.82033100 2.42113200 2.40263000
F 0.58354700 2.70168500 1.69061100
F -1.16657500 2.98600000 0.42408700
F 0.13917600 0.11485200 1.92931200
F -1.90677100 0.32114400 1.20961700
C 1.28331200 -0.06837000 -0.65903200
C 2.43531000 0.94253600 -0.39611800
C 2.37847900 2.28499000 -1.17356500
F 2.29429300 2.06733000 -2.47477800
F 1.32591800 2.99890500 -0.78401800
F 3.47717000 2.97595200 -0.91581300
F 3.56629600 0.32706300 -0.75609200
F 2.48062500 1.21155600 0.91224000
F 1.54951100 -1.14955500 0.07821100
F 1.33918100 -0.40082900 -1.95613600
F -0.89751300 -0.77806000 -0.67776900
F -0.55159500 1.27214400 -1.29200700
H 1.22723600 3.74743600 3.56319700
30
energy = -2625.43052279
C -0.01574200 0.28576100 -0.27055800
C -0.76158900 0.93944300 0.93481800
C -2.28029200 0.58549800 1.11377700
C -3.22297800 0.95447500 -0.06247000
C -4.69823300 0.44109100 0.04321800
F -5.35737400 0.97916600 -0.97689300
F -4.69438500 -0.88434800 -0.06924000
S -5.66455300 0.82723000 1.60730000
O -7.04714000 0.80469900 1.24287600
O -5.09816700 0.01413800 2.64942500
O -5.26786500 2.35254000 1.84405200
F -3.23645500 2.28396000 -0.18736100
F -2.73650900 0.40713800 -1.18392400
F -2.40542700 -0.70486800 1.40106400
F -2.66740700 1.31527200 2.18746700
F -0.66272400 2.26720000 0.82368200
F -0.17850300 0.54608800 2.07327100
C 1.53310700 0.13989300 -0.12662400
C 2.37496200 1.42784000 0.12082000
C 2.31837800 2.54685100 -0.96037900
F 2.47074600 2.03964400 -2.17364500
F 1.16295300 3.19177900 -0.89793800
F 3.29812400 3.40556600 -0.72370100
F 3.64684000 1.02677900 0.21181000
F 1.99826400 1.96661000 1.28793700
F 1.79005300 -0.69308600 0.88577600
F 1.95833100 -0.42168800 -1.26435500
F -0.49387800 -0.95118300 -0.45053000
F -0.24607300 1.01469000 -1.36899100
H -4.45719900 2.40042200 2.38245500
30
energy = -2625.43042312
C 0.05978400 0.10918800 0.03731100
C -0.73314300 -1.24694000 0.09531300
C -0.50440500 -2.36658100 -0.97761700
C -0.83298100 -2.07943500 -2.48575300
C -2.30799700 -2.38279700 -2.89283800
F -2.45519300 -3.68948600 -3.04390800
F -3.15245200 -1.93192400 -1.97004600
S -2.82369300 -1.54062100 -4.50394000
O -3.81691300 -2.38285400 -5.09637000
O -3.02610200 -0.14796600 -4.20721500
O -1.49380000 -1.69384400 -5.37493200
F -0.54882300 -0.79930100 -2.78190400
F -0.04621000 -2.86591900 -3.21972900
F 0.77836500 -2.73342900 -0.90805800
F -1.26443500 -3.40468800 -0.59943300
F -2.02733800 -0.91522400 0.09688200
F -0.42988900 -1.82560200 1.26286500
C 1.59064800 0.00052000 -0.20979700
C 2.35792800 1.32632500 0.08954400
C 3.78591500 1.36065400 -0.53152500
F 4.43482900 0.23916600 -0.24763500
F 3.71219000 1.50147000 -1.84592400
F 4.45107100 2.38633500 -0.02495400
F 2.47768100 1.45597700 1.41206800
F 1.67372500 2.36589800 -0.40036300
F 2.09379100 -0.95277700 0.57941300
F 1.78421400 -0.33306100 -1.49626400
F -0.48192100 0.88771300 -0.89973300
F -0.12393100 0.68410900 1.23418300
H -0.95440700 -0.88790400 -5.29147000
30
energy = -2625.4303219099997
C 0.37433500 -0.10072400 0.21898900
C -0.31373500 0.80856600 1.29748400
C -0.25069100 0.36443100 2.79947100
C 1.16368000 0.17357100 3.41761000
C 1.14236400 0.26250500 4.97313200
F 1.09373500 1.53209600 5.35026000
F 0.08826700 -0.39595300 5.45546200
S 2.68098000 -0.51060700 5.72762400
O 2.50998300 -1.93883200 5.74349300
O 3.80747100 0.15473200 5.14626000
O 2.50778600 0.03052500 7.22133500
F 1.62588200 -1.03142000 3.06910900
F 1.97440700 1.12731500 2.95227600
F -0.86533700 1.34202600 3.48518800
F -0.93963100 -0.76697700 2.94233000
F -1.62025900 0.81640400 1.00733700
F 0.15036100 2.05898900 1.20527300
C 1.87944600 0.12327800 -0.16677000
C 2.30350000 1.56489500 -0.58421500
C 3.54986800 1.57873300 -1.51956700
F 4.48604900 0.77475600 -1.03347600
F 3.22330200 1.18663200 -2.73994600
F 4.02756200 2.81236700 -1.57952600
F 2.61897000 2.25458400 0.51423400
F 1.29605700 2.16921900 -1.22490700
F 2.66169800 -0.26903700 0.83857200
F 2.08662100 -0.69347500 -1.21197700
F 0.28060000 -1.37260000 0.63450700
F -0.32497400 0.04084200 -0.91006000
H 2.14104300 -0.67820300 7.77801000
30
energy = -2625.430444490001
C 0.23224600 0.17366900 0.49529700
C -0.61248800 -1.13623100 0.30962600
C -0.20837600 -2.33851000 1.20686500
C -1.17336300 -3.57646500 1.24348900
C -1.29623100 -4.42792000 -0.08075500
F -0.32849400 -4.10830900 -0.93880500
F -1.19764900 -5.71515300 0.22846400
S -2.92717100 -4.27444300 -1.00377800
O -2.67666900 -4.76335900 -2.33309300
O -3.96077400 -4.77971100 -0.15379100
O -3.07740700 -2.68577200 -1.06778200
F -0.65945900 -4.37992000 2.17871800
F -2.38205300 -3.17300900 1.63992700
F 1.00158900 -2.77337700 0.83811400
F -0.14769100 -1.88623800 2.46591200
F -0.53971700 -1.49860900 -0.98114300
F -1.87145200 -0.79106200 0.59434500
C 1.77431900 0.02917300 0.37739300
C 2.56351400 1.35593900 0.13347300
C 2.29855800 2.51023900 1.13782400
F 1.08246800 3.00601400 0.95423800
F 2.40807000 2.07054500 2.38295900
F 3.18718900 3.46935600 0.93529800
F 2.29544200 1.80018100 -1.09680000
F 3.86047600 1.03853800 0.21348000
F 2.23122700 -0.52446000 1.50526500
F 2.05280400 -0.77219000 -0.65931900
F -0.19427100 1.01433800 -0.45775600
F -0.05283900 0.68778200 1.69450400
H -2.72166400 -2.35727300 -1.91204000
30
energy = -2625.4295864600003
C 0.18893400 -0.17622200 -0.36957500
C -0.73078400 0.20720200 -1.57038300
C -2.25983200 0.37966400 -1.26671900
C -2.98407600 -0.84050600 -0.63548400
C -4.51498600 -0.59125300 -0.35277500
F -4.97586700 0.44790400 -1.05449900
F -5.19659500 -1.67848000 -0.68063200
S -4.87082600 -0.21681100 1.45443200
O -4.83070300 -1.44711100 2.18234000
O -4.11307800 0.95563800 1.80237200
O -6.40791900 0.19052000 1.30399100
F -2.87165700 -1.87233600 -1.47158000
F -2.39663700 -1.15299900 0.52846500
F -2.42717400 1.43851000 -0.47343300
F -2.82698600 0.61891400 -2.45731900
F -0.59541700 -0.72895100 -2.51171400
F -0.33861500 1.38893200 -2.06815200
C 1.71972300 0.11713900 -0.61596500
C 2.32112900 1.41789600 0.00672000
C 1.74931800 2.78137100 -0.46022000
F 1.85503600 2.89626500 -1.77538600
F 0.47675700 2.90057800 -0.10670100
F 2.44354600 3.75114900 0.11493400
F 3.62080400 1.41182000 -0.31691500
F 2.20088800 1.34740200 1.33537100
F 2.40559800 -0.88363500 -0.05513200
F 1.96516100 0.11869800 -1.93293700
F -0.21902200 0.46021400 0.73463600
F 0.06230800 -1.49318100 -0.18535500
H -6.48102800 1.15045200 1.16428600
30
energy = -2625.4339367500006
C 0.05231400 -0.01946000 -0.06776600
C -0.59171200 -1.42558900 0.08685600
C -2.15917800 -1.47263200 0.12332400
C -2.92363600 -0.86453500 -1.08913600
C -4.38461800 -1.38343500 -1.28600500
F -4.91615200 -0.67164400 -2.27588500
F -4.37206700 -2.67112400 -1.62579400
S -5.52113700 -1.20047900 0.19380900
O -5.15175100 -2.19586300 1.16477700
O -5.63232500 0.19666800 0.48267600
O -6.88019800 -1.66062000 -0.50835300
F -2.98780000 0.45868900 -0.94193800
F -2.27092500 -1.16245900 -2.22042400
F -2.47324600 -2.77104100 0.21484300
F -2.56969200 -0.83669400 1.22472100
F -0.19904600 -1.94858600 1.25312600
F -0.16052000 -2.20169000 -0.91324300
C 1.61153000 -0.05948100 -0.18848100
C 2.25632400 1.33406800 0.08626500
C 3.71231500 1.45456900 -0.45108300
F 4.42445500 0.40091800 -0.07271700
F 3.71194100 1.53042300 -1.77205600
F 4.26578600 2.55091400 0.04349100
F 2.28125400 1.53743600 1.40514300
F 1.51955800 2.28626000 -0.49834000
F 2.11664400 -0.93449500 0.68533700
F 1.92330200 -0.44863500 -1.43030600
F -0.42115300 0.54528500 -1.18518800
F -0.28854800 0.72404300 0.99026100
H -7.03850400 -2.60178300 -0.31911000
30
energy = -2625.43180762
C 0.94979000 0.45801700 -0.08908900
C 0.78209400 1.87545700 -0.71295000
C 0.27655700 2.99426600 0.26022800
C -1.04348900 2.69019700 1.01646800
C -1.64821300 3.88744700 1.81599300
F -2.68879800 3.40831900 2.49032100
F -0.73709600 4.35155800 2.67319500
S -2.32195800 5.36256200 0.85251300
O -2.69198700 4.92826900 -0.45971800
O -3.22314800 6.02047200 1.76048000
O -1.00633200 6.25585400 0.71880000
F -1.96032800 2.23814300 0.16181700
F -0.78462800 1.74288900 1.93044000
F 1.23269200 3.24764600 1.15852400
F 0.08885600 4.08240900 -0.49762800
F -0.07545500 1.78638200 -1.73060900
F 1.96733900 2.29907400 -1.16956700
C 1.80337800 -0.52871500 -0.96958500
C 3.30767900 -0.59568500 -0.56682000
C 4.19718700 -1.28981600 -1.63945500
F 3.64643700 -2.43572600 -2.01738400
F 4.34210300 -0.50568100 -2.69548300
F 5.38928400 -1.53399600 -1.11737200
F 3.40482000 -1.29395000 0.56768200
F 3.78846600 0.63649100 -0.37145300
F 1.29347300 -1.75307500 -0.82520700
F 1.70523700 -0.16968900 -2.25801300
F 1.51818400 0.56156600 1.12054100
F -0.27144500 -0.06613900 0.04723500
H -0.97057400 6.88906500 1.45668700
30
energy = -2625.4288988000003
C -0.18173900 0.36237000 -0.25977200
C 0.12869000 0.80713900 -1.72599000
C 0.63014600 -0.34078000 -2.68209400
C 1.89725500 0.02144100 -3.52892100
C 1.76439800 1.32450100 -4.39628600
F 0.48808900 1.72814100 -4.42693100
F 2.51685800 2.28842900 -3.89109900
S 2.29866400 1.06734000 -6.17740300
O 3.69921400 0.77422500 -6.16130800
O 1.30689900 0.25454900 -6.82911900
O 2.12524900 2.57307900 -6.68374500
F 2.93995300 0.14829500 -2.71419900
F 2.10541300 -1.02245700 -4.34304700
F 0.96631000 -1.42236600 -1.96560900
F -0.35270300 -0.67477200 -3.51615800
F 1.05100800 1.78850300 -1.69556200
F -1.00148200 1.30903500 -2.21981500
C 1.08455100 0.11499800 0.64452500
C 1.43875300 1.21997000 1.69225200
C 1.84159100 2.62154200 1.15414500
F 2.83885400 2.51132600 0.28914700
F 0.81709200 3.21886900 0.56269600
F 2.23547200 3.36507500 2.17648900
F 2.49507000 0.75210400 2.36935400
F 0.41168500 1.36641400 2.53339200
F 0.86522700 -0.99579800 1.35120700
F 2.16323400 -0.07113500 -0.13095700
F -0.93616900 1.32069000 0.29195100
F -0.90985200 -0.75514900 -0.31770100
H 1.27014000 2.66322300 -7.13885800
30
energy = -2625.4297047
C 0.37510300 -0.03986500 -0.29870000
C -0.57919100 -1.28144400 -0.48743400
C -2.11474600 -1.01681300 -0.31269700
C -2.74841000 -0.00032100 -1.33067400
C -3.58923500 1.15212700 -0.69610100
F -2.80069000 1.91510900 0.05314300
F -4.08784300 1.86937100 -1.69454200
S -5.06701700 0.56313100 0.33192300
O -6.15091600 1.45121500 0.04720500
O -5.13620300 -0.86629400 0.16662700
O -4.57634100 0.89525700 1.80859600
F -1.75310300 0.60116100 -2.00721800
F -3.51253800 -0.65558000 -2.19635600
F -2.70532800 -2.19665100 -0.44774200
F -2.31975100 -0.57926300 0.95287500
F -0.28250600 -2.21060800 0.43185700
F -0.39069500 -1.79511200 -1.70262700
C 1.64470200 -0.35729500 0.54301900
C 2.76329400 0.73536000 0.50598800
C 2.32579000 2.18686800 0.84288000
F 1.62386500 2.69560800 -0.16020300
F 1.58848500 2.20185500 1.94515000
F 3.40357900 2.93026600 1.03174600
F 3.32171200 0.73981600 -0.70647100
F 3.67654200 0.36521600 1.41059700
F 1.28461900 -0.54477400 1.81518500
F 2.20190200 -1.47514100 0.05930100
F 0.77406800 0.39651900 -1.49338500
F -0.30555000 0.93636000 0.32548700
H -4.00974300 0.17458700 2.13554700
30
energy = -2625.43085087
C 0.09031100 -0.16339700 0.05036900
C -0.62491100 0.65283300 1.17838700
C -0.28885300 0.25026200 2.64539500
C -0.88356600 1.23118100 3.72136200
C 0.03301800 2.44443500 4.11624400
F 0.84306900 2.78628600 3.12045900
F -0.74450000 3.48162200 4.42126000
S 1.08431300 2.10791100 5.63878900
O 0.23104100 2.19784000 6.79312700
O 1.92489800 0.98550500 5.35129500
O 1.99209900 3.42214300 5.58112200
F -2.04165800 1.72293100 3.27141000
F -1.12375300 0.52095400 4.82916500
F -0.81794100 -0.95497500 2.86232600
F 1.03545000 0.17920500 2.80956900
F -1.93197300 0.43574400 0.99407300
F -0.37609000 1.95750000 1.00139800
C 1.64309400 -0.08491600 -0.15459000
C 2.25613300 1.34101800 -0.18062000
C 3.70867500 1.38823100 -0.73968200
F 4.45845400 0.47006800 -0.14689300
F 3.70875600 1.17658600 -2.04564200
F 4.21926000 2.58647700 -0.49816700
F 2.28153400 1.81404700 1.07031400
F 1.49628800 2.13440400 -0.94445900
F 2.25073700 -0.80277900 0.79004500
F 1.87567100 -0.66015900 -1.34450800
F -0.19521400 -1.45590900 0.25213800
F -0.47376900 0.23875200 -1.09379600
H 1.63530600 4.08511300 6.19740800
30
energy = -2625.432521
C 0.40216500 0.53159200 -0.49870400
C -0.49032900 1.23938300 0.56283900
C -0.76699500 0.52887000 1.92775000
C -1.39535800 -0.89660700 1.85581500
C -2.03642300 -1.35547400 3.21220900
F -1.92225000 -2.68085000 3.30598400
F -1.40840500 -0.79106600 4.23884600
S -3.87093100 -0.98546500 3.40935900
O -4.19075700 -1.37151900 4.75763100
O -4.16120800 0.30436500 2.86300900
O -4.46904000 -2.07419200 2.40605900
F -2.32810000 -0.94532700 0.89937500
F -0.42446100 -1.76625900 1.56331500
F 0.38123800 0.44095900 2.60675000
F -1.60489700 1.33277100 2.59093200
F -1.66831400 1.46700300 -0.02325500
F 0.08228600 2.41495500 0.85810000
C 1.89367200 0.21934700 -0.15292200
C 2.77735800 1.42094400 0.29846100
C 4.30331400 1.14190200 0.15116200
F 4.60074500 -0.04306000 0.66846600
F 4.66032400 1.16590400 -1.12214600
F 4.97438900 2.07860800 0.80339500
F 2.53297900 1.67296600 1.58726300
F 2.48395800 2.50117100 -0.43197700
F 1.92449700 -0.71467200 0.80197500
F 2.42312800 -0.29081500 -1.27493200
F -0.17032600 -0.64101000 -0.80712100
F 0.38995200 1.31251300 -1.58314000
H -4.67249900 -2.89100400 2.89410600
30
energy = -2625.4229427300006
C 0.17296800 0.21993800 -0.06480900
C -0.46588700 0.77288200 1.25571600
C -0.33340000 -0.01519800 2.60983500
C 1.09390200 -0.15496500 3.25293200
C 1.80081100 -1.53548600 3.02638900
F 1.46523700 -2.07507600 1.85970500
F 3.11862900 -1.34434400 3.05925700
S 1.40479900 -2.83522700 4.33002700
O 0.02915700 -2.70436000 4.70297500
O 1.98660100 -4.05651000 3.84078900
O 2.29064000 -2.30114900 5.54524700
F 1.88320800 0.81200900 2.76798900
F 0.98710200 0.02829500 4.57130900
F -1.06979900 0.69517100 3.47022100
F -0.88836300 -1.22020800 2.46111700
F -1.78528400 0.78492700 1.02272500
F -0.05557300 2.02990800 1.45444600
C 1.67931800 0.46171000 -0.41077900
C 2.24220200 1.91432600 -0.53541200
C 1.46089900 2.89868900 -1.44977700
F 1.19150200 2.32831700 -2.61455600
F 0.32976100 3.27393500 -0.87119500
F 2.21035600 3.97064300 -1.65485700
F 3.46727200 1.77702900 -1.05894100
F 2.35365000 2.45817500 0.67828000
F 2.44975400 -0.16492200 0.48947200
F 1.85624200 -0.12650900 -1.59962500
F -0.01546000 -1.10444800 -0.09076600
F -0.51788700 0.76988000 -1.07412100
H 3.15417900 -2.74957600 5.53893000
30
energy = -2625.43689712
C 0.10407300 -0.01608700 0.04493400
C -0.46300100 -1.47103400 -0.03910200
C -2.01627700 -1.52606900 -0.06791400
C -2.63297400 -2.96256800 0.03760200
C -2.33194200 -3.77760100 1.33327900
F -1.19162600 -4.45264100 1.18635800
F -2.25662400 -2.98438000 2.39387000
S -3.67120400 -5.06024700 1.65564900
O -4.76176000 -4.42396600 2.32730900
O -3.80290000 -5.83283200 0.44850700
O -2.89915400 -5.93433100 2.74711000
F -3.95989600 -2.79465300 -0.04222500
F -2.20900000 -3.67200200 -1.00817500
F -2.49480400 -0.77018700 0.92498000
F -2.43696400 -1.03828500 -1.23871400
F -0.03655300 -2.14090500 1.04058600
F 0.00353100 -2.06486800 -1.14249600
C 1.60977500 0.05074800 -0.36618500
C 2.30987800 1.34748500 0.14106600
C 3.65111100 1.64952700 -0.58909500
F 4.40545300 0.55823900 -0.61823600
F 3.42292100 2.05675200 -1.82693600
F 4.29454100 2.60265700 0.06674700
F 2.56854800 1.21161000 1.44336800
F 1.49090200 2.38946800 -0.04622900
F 2.24952200 -1.00564100 0.14841300
F 1.68532400 0.00774300 -1.70077600
F -0.59221400 0.78332000 -0.76745500
F -0.02304700 0.41080100 1.30564700
H -2.39035300 -6.63703600 2.30707000
30
energy = -2625.4313905300005
C 0.35985700 0.68531100 0.10566800
C -0.73032700 1.10940400 -0.94605200
C -0.53879200 2.52809700 -1.60016500
C -1.28828400 3.67004200 -0.84908600
C -0.82671600 5.11914500 -1.20637000
F -1.65264700 5.95461300 -0.58316200
F 0.41660300 5.31734600 -0.76985100
S -0.85776500 5.56740600 -3.02580300
O 0.25247700 4.91007700 -3.66263600
O -2.21284300 5.46590700 -3.47412000
O -0.50881100 7.11961900 -2.88139900
F -2.58959400 3.57644300 -1.11614200
F -1.09395300 3.54072500 0.47045200
F 0.76267500 2.82870800 -1.67334900
F -1.04213300 2.47352700 -2.83629900
F -1.92058300 1.08849500 -0.33519700
F -0.74420100 0.20138000 -1.92719300
C 1.57101700 -0.07780200 -0.52152900
C 2.81041300 -0.19643200 0.43500000
C 3.88041100 0.92104100 0.26091500
F 4.52330900 0.75618500 -0.88421400
F 3.32222100 2.12313100 0.27640200
F 4.74801100 0.83760300 1.25854600
F 3.41579200 -1.35992200 0.18497900
F 2.39086800 -0.19092800 1.70622600
F 1.16051200 -1.31321300 -0.81197700
F 1.95550500 0.52942200 -1.65391600
F 0.79205600 1.76748800 0.76513300
F -0.22309800 -0.14178400 0.97585200
H 0.44478900 7.25024500 -3.02377700
30
energy = -2625.42653717
C 0.05848600 0.17945200 0.20414300
C -0.36994300 0.73010500 -1.19451900
C -0.27842400 -0.26027600 -2.43243900
C 0.83046400 0.11087600 -3.45798500
C 1.11160700 -0.94509400 -4.57664800
F 2.01979400 -0.40756100 -5.38691400
F 1.60775500 -2.05523000 -4.02992500
S -0.30648600 -1.46592300 -5.68769600
O -1.12134400 -0.32123800 -5.95736200
O 0.28860100 -2.28275300 -6.71066400
O -1.11019900 -2.41336100 -4.68372400
F 0.50579600 1.26063200 -4.04616500
F 1.99295100 0.24938400 -2.80578600
F -0.06752200 -1.51456400 -2.01132100
F -1.44648500 -0.21370400 -3.07360900
F 0.34025800 1.84039400 -1.44071600
F -1.65295600 1.07002600 -1.05877400
C 1.56463500 -0.11569100 0.47797500
C 2.59962700 1.05753900 0.52486100
C 2.25361600 2.28352900 1.41613800
F 1.34219400 3.03877200 0.82112300
F 1.80053100 1.88897000 2.59701900
F 3.35182800 3.00169300 1.59264400
F 2.82883400 1.50249400 -0.71234600
F 3.72643600 0.51757800 1.00566100
F 1.60328100 -0.71358800 1.67416300
F 2.00433900 -0.97447700 -0.45251000
F -0.34081200 1.08815400 1.10577400
F -0.61208100 -0.95491500 0.42995800
H -0.81079300 -3.33260500 -4.79509200
30
energy = -2625.4294637400003
C 0.29785600 0.43973500 0.11274800
C -0.59135500 0.43409200 -1.16675500
C -2.14296500 0.53877900 -0.86681900
C -2.98740600 -0.77797000 -1.00657900
C -2.66056700 -1.93866100 -0.02691000
F -1.50868800 -2.51310800 -0.34920500
F -2.60580500 -1.48455000 1.22636400
S -3.95094100 -3.31370200 -0.04579000
O -4.44062100 -3.46534700 -1.38198200
O -3.37362900 -4.38551800 0.72081400
O -5.10915400 -2.63591100 0.81775500
F -4.25544800 -0.41239000 -0.77047000
F -2.88039600 -1.22287500 -2.25650200
F -2.35366300 1.03425500 0.35836300
F -2.66163100 1.38120500 -1.76363500
F -0.37232400 -0.69650300 -1.84938900
F -0.23674600 1.47341800 -1.92255300
C 1.85122300 0.28252000 -0.13216500
C 2.62321600 1.63720200 -0.16197300
C 4.07535100 1.49974800 -0.70877000
F 4.69286600 0.48656200 -0.11603700
F 4.06031100 1.29788300 -2.01635200
F 4.73654800 2.61824600 -0.45365600
F 2.69724200 2.11374900 1.08302800
F 1.97531300 2.51112800 -0.93965400
F 2.34400000 -0.44215600 0.87423000
F 2.08224000 -0.36317700 -1.28293200
F 0.10347200 1.58649600 0.77600900
F -0.10849200 -0.58134200 0.87729600
H -5.00995400 -2.88920700 1.75191200
30
energy = -2625.43282387
C -0.15401100 0.26000100 -0.16314200
C -0.63048000 0.84241800 1.20620500
C -2.16096600 0.67247400 1.43508100
C -2.74817800 1.43121000 2.67655000
C -2.62857900 2.98937600 2.68266100
F -1.46372300 3.33920400 3.21861300
F -2.72978400 3.47827200 1.45055200
S -3.96298800 3.85009700 3.69825200
O -3.41671800 5.12354000 4.08561400
O -5.21144800 3.70247200 3.01575500
O -3.97812800 2.89798100 4.98289400
F -4.04247600 1.10038800 2.71863000
F -2.13705500 0.96795200 3.77096700
F -2.81038700 1.06962700 0.33687000
F -2.41397000 -0.62099100 1.65587700
F -0.34623200 2.15255300 1.21770200
F 0.01661700 0.24050000 2.20742400
C 1.37553100 -0.02794400 -0.30304400
C 2.38563900 1.13077500 -0.05251900
C 2.29684300 2.37412900 -0.98247600
F 2.28042600 2.00488700 -2.25384200
F 1.20673300 3.07788100 -0.71739900
F 3.35871000 3.13526800 -0.76564700
F 3.60382900 0.60332400 -0.21488500
F 2.25277600 1.54595100 1.21396200
F 1.69280700 -1.00409000 0.55401700
F 1.55750700 -0.47245800 -1.55209100
F -0.76592900 -0.91333600 -0.36663800
F -0.50941000 1.10998300 -1.13197600
H -3.46168000 3.31198200 5.69621700
30
energy = -2625.4350848599997
C 0.11964800 0.03704900 0.22645000
C -0.66139700 -1.31343100 0.32141800
C -2.18586000 -1.09506700 0.58160700
C -3.02939200 -2.36094400 0.22841700
C -4.46633300 -2.35413900 0.85370300
F -4.90830600 -1.10638000 0.98165100
F -5.28478700 -3.02686200 0.04394800
S -4.62071800 -3.17413900 2.53976300
O -3.47084300 -2.85580100 3.32925800
O -5.97300100 -2.92402200 2.96159700
O -4.49179800 -4.70442700 2.10349900
F -3.16995300 -2.40923400 -1.09806000
F -2.38243200 -3.45907800 0.63774200
F -2.35916000 -0.78352700 1.86630600
F -2.61667100 -0.08475300 -0.18385600
F -0.16026600 -2.04239500 1.32132900
F -0.51046700 -1.97280800 -0.83270000
C 1.65270000 -0.14268800 0.44030500
C 2.54706500 1.03972600 -0.05065000
C 2.18243100 2.44320400 0.50306500
F 1.04258300 2.86145700 -0.03029400
F 2.05651900 2.39846100 1.82144700
F 3.14255800 3.29727700 0.18654300
F 2.51020700 1.09084400 -1.38459500
F 3.79425800 0.75875900 0.34389500
F 1.88375300 -0.32396800 1.74225700
F 2.05041100 -1.22853300 -0.23752600
F -0.10021100 0.56807100 -0.97998800
F -0.33759800 0.87062800 1.17075600
H -5.37743800 -5.07467900 1.94437500
30
energy = -2625.43508117
C -0.17677700 0.21828900 0.26413600
C 0.28507700 -1.26978100 0.03909700
C 0.57685200 -1.62820800 -1.45253900
C 1.35890100 -2.98126400 -1.64094700
C 2.90219300 -2.79706000 -1.74181000
F 3.20903300 -2.34729800 -2.95899700
F 3.34552200 -1.94731700 -0.82504800
S 3.80706400 -4.42866800 -1.50660700
O 3.95751900 -4.66191000 -0.10361100
O 3.21755200 -5.36938300 -2.42223100
O 5.23788600 -3.98961700 -2.06435900
F 1.08673200 -3.80515300 -0.62041100
F 0.94346500 -3.53917000 -2.77577200
F -0.59683100 -1.74383100 -2.07411700
F 1.28243800 -0.65048300 -2.03931900
F -0.70004000 -2.07037000 0.44935900
F 1.37184600 -1.50191700 0.78707100
C 0.98795000 1.19144500 0.62916900
C 0.58431300 2.68868400 0.46796700
C 1.54076800 3.66942400 1.20704200
F 1.37340900 3.58056500 2.51635100
F 2.80187300 3.38822400 0.90606700
F 1.26962900 4.90683300 0.82111300
F -0.64879900 2.86984300 0.95546500
F 0.59878000 2.99562200 -0.83144600
F 1.33396900 0.96842300 1.90199000
F 2.03932500 0.95411600 -0.16196000
F -0.79093300 0.66373600 -0.84218000
F -1.04593600 0.22522900 1.27496600
H 5.28593300 -4.16090600 -3.02077100
30
energy = -2625.4298619400006
C 0.35184200 -0.31591700 -0.10200200
C -0.59890100 0.38797700 -1.12712400
C -0.45715200 -0.02676500 -2.61718700
C -1.51910100 0.54721800 -3.61912600
C -1.55211000 2.10401400 -3.83209000
F -0.39281200 2.65942800 -3.49920500
F -1.79432200 2.34731300 -5.12122900
S -2.89854900 3.02611000 -2.89459400
O -3.02258100 2.48012000 -1.57790100
O -2.65970700 4.41927500 -3.16056700
O -4.17347400 2.55166800 -3.72998900
F -1.19961900 0.00374500 -4.79983600
F -2.73719000 0.12539500 -3.27067400
F 0.74973800 0.32961500 -3.06881800
F -0.57808500 -1.35744000 -2.69057300
F -0.40910800 1.71102200 -1.02558500
F -1.83779800 0.07993900 -0.73540100
C 1.89999000 -0.14632700 -0.23296300
C 2.44725100 1.31041200 -0.26942000
C 3.97476300 1.39742800 0.02659800
F 4.21194300 1.18653800 1.31056200
F 4.63170500 0.49801300 -0.69417700
F 4.40477300 2.60737400 -0.29706000
F 1.80905200 2.05374500 0.63971700
F 2.23815400 1.81993200 -1.48707800
F 2.42081200 -0.75595700 0.84281000
F 2.30787500 -0.78976200 -1.33103100
F -0.00642500 0.14415200 1.10118900
F 0.11599300 -1.63183600 -0.14907500
H -4.35251500 3.18875100 -4.44339200
30
energy = -2625.42390803
C 0.12760900 0.28695800 -0.12053000
C -0.60262000 0.82296000 1.18065700
C -1.14626500 2.27819300 1.03866200
C -1.71912600 2.86293500 2.39664600
C -3.13133300 3.53297500 2.33384100
F -4.00656800 2.72155100 1.76088000
F -3.50354400 3.76453100 3.59039400
S -3.19110400 5.21639300 1.47736600
O -4.39449500 5.24130100 0.70420500
O -2.84664500 6.20572100 2.46257100
O -1.96615400 5.08034100 0.45899000
F -1.82888300 1.88264200 3.29986700
F -0.85871200 3.77921300 2.86079400
F -0.13843300 3.06090300 0.63521300
F -2.10324900 2.27512900 0.10749800
F 0.23995600 0.77296400 2.21991300
F -1.64620300 0.02919300 1.42284600
C 1.68360100 0.12003400 -0.06284300
C 2.61065900 1.36455200 0.11265700
C 2.74805300 2.34059200 -1.09171200
F 3.18813200 1.70762000 -2.16571200
F 1.58842600 2.91841300 -1.36894700
F 3.62100200 3.28071700 -0.75735400
F 3.83453900 0.88015100 0.35199300
F 2.21072500 2.07837600 1.17212400
F 1.95902500 -0.71532400 0.94426400
F 2.02731700 -0.46982500 -1.21642500
F -0.33697400 -0.94400300 -0.35023800
F -0.17877100 1.05667200 -1.17257600
H -1.18232900 5.52339200 0.82901900
30
energy = -2625.4270959399996
C 0.13913800 -0.02931000 -0.04660500
C -0.66337400 0.48278500 -1.27664300
C -2.20648200 0.69240700 -1.08486800
C -2.78352900 1.65001700 0.00086300
C -2.32773500 3.13661900 -0.00339700
F -2.98863400 3.74650100 0.98624400
F -1.02214200 3.20791200 0.22720700
S -2.70678500 4.11809100 -1.55868600
O -1.70343700 3.81688800 -2.53198500
O -4.12120200 4.01620800 -1.79750600
O -2.37999600 5.57206800 -0.98586200
F -4.10956000 1.63520400 -0.16025100
F -2.49532500 1.15813400 1.21121900
F -2.66048400 1.13422000 -2.26656000
F -2.74137600 -0.50644600 -0.83197100
F -0.57869100 -0.43729600 -2.24435300
F -0.11180800 1.62490600 -1.69719300
C 1.67570000 -0.28342400 -0.33023000
C 2.69221700 0.78367800 0.19380100
C 2.60456200 2.21884100 -0.39455800
F 2.58678900 2.17360300 -1.71788300
F 1.51709000 2.83906400 0.03768400
F 3.66847700 2.90144600 0.00143700
F 3.90354000 0.30987100 -0.12636200
F 2.59386200 0.86349000 1.52378800
F 2.00391100 -1.41863400 0.29444100
F 1.88935500 -0.43786100 -1.64164700
F 0.03166700 0.86507700 0.94705600
F -0.40975700 -1.17953200 0.34691100
H -3.18164000 5.96125000 -0.59536500
30
energy = -2625.43328845
C 0.11129000 -0.07803700 -0.11564600
C -0.46904000 -1.52779200 0.03563600
C -0.09146200 -2.32204200 1.32771900
C -1.11785200 -3.44971600 1.65652600
C -0.62228200 -4.56381400 2.63806600
F -1.67491400 -5.32734300 2.90937100
F 0.31579400 -5.28787500 2.03477500
S 0.11002800 -4.01179700 4.27913400
O -0.02745700 -5.11875300 5.17381600
O 1.36402400 -3.37325000 3.98163700
O -0.94772700 -2.90855600 4.73132400
F -2.21153200 -2.88904300 2.17811000
F -1.43640100 -4.07491800 0.51653700
F 1.11339200 -2.86072900 1.16370000
F -0.07104600 -1.46983000 2.37644300
F -0.07329700 -2.24331300 -1.01792700
F -1.80110100 -1.38374500 0.00304200
C 1.66028600 0.03997300 -0.07767400
C 2.17887000 1.50811100 -0.17646600
C 3.70588000 1.59740500 -0.47097500
F 4.37623100 0.79519400 0.34445600
F 3.95232200 1.25218900 -1.72434900
F 4.10657600 2.84432000 -0.27959500
F 1.94280200 2.11328200 0.99069500
F 1.53406000 2.15775700 -1.15034100
F 2.09430500 -0.46243500 1.08541600
F 2.16305500 -0.67766600 -1.08872100
F -0.32295400 0.35055800 -1.30515200
F -0.40165100 0.69651900 0.84668300
H -0.69151600 -2.04134300 4.36827600
30
energy = -2625.4266953600004
C 0.06266800 -0.06780400 -0.18518900
C -0.54714000 -1.46342900 0.17673500
C -0.46824300 -2.01208200 1.65657900
C -0.56337600 -1.05595300 2.89109100
C -1.90707500 -0.26784700 3.08756200
F -1.62851900 0.94303800 3.54987400
F -2.55572300 -0.16322800 1.92879100
S -3.12364200 -1.05542000 4.28623300
O -4.23420300 -0.15661000 4.35508100
O -3.24135100 -2.44692000 3.94402100
O -2.32321000 -0.90961900 5.65645300
F -0.37433600 -1.84591500 3.97119000
F 0.44538800 -0.18769500 2.84990400
F -1.44872300 -2.91136800 1.77336500
F 0.70811500 -2.63488600 1.79002400
F 0.05789300 -2.38224800 -0.58774600
F -1.83294000 -1.40502000 -0.17296000
C 1.62021100 -0.00761800 -0.20983300
C 2.20659000 1.44709700 -0.31442400
C 2.58414800 2.09830600 1.04738700
F 1.57548700 2.01603600 1.90370600
F 3.64339500 1.49454600 1.56248100
F 2.87204000 3.37427800 0.84314900
F 1.32125900 2.24032700 -0.92942600
F 3.32103200 1.39112600 -1.04641200
F 2.10593200 -0.59460200 0.89560200
F 2.03178900 -0.69444100 -1.27540900
F -0.36569000 0.21950600 -1.41649700
F -0.42539400 0.84824700 0.66599400
H -1.74961900 -1.68575700 5.78116300
30
energy = -2625.4307227000004
C 0.35674700 -0.11089400 0.00029600
C -0.10157000 -1.55995900 0.42861800
C -0.24006800 -2.64764100 -0.69339100
C 1.04547000 -3.05869500 -1.45849900
C 0.92723200 -4.32256900 -2.37318400
F 2.09344900 -4.44260000 -3.00284800
F 0.71846000 -5.40210900 -1.61974900
S -0.37409600 -4.33573500 -3.72307800
O -0.46958500 -3.02144000 -4.28043900
O -0.10739800 -5.51628800 -4.49964300
O -1.68235600 -4.59029100 -2.84325100
F 1.45439000 -2.03990800 -2.21503900
F 1.99374200 -3.36472400 -0.56207400
F -0.70885600 -3.74445200 -0.07797000
F -1.14894800 -2.21720600 -1.57143500
F -1.33370200 -1.44726500 0.93539600
F 0.71206000 -2.02110500 1.38591800
C 1.86342800 0.18647200 0.27734500
C 2.37299600 1.46496300 -0.45629900
C 3.72604700 1.99673100 0.10174100
F 3.55448000 2.53770000 1.29705200
F 4.60248500 1.00483000 0.19187200
F 4.19860200 2.91779000 -0.72357300
F 1.46557000 2.44066000 -0.33532200
F 2.54558800 1.17370000 -1.74721400
F 2.02195400 0.34855700 1.59559800
F 2.60525300 -0.84881000 -0.13255600
F 0.10383800 0.07878000 -1.30079400
F -0.35830100 0.76239600 0.71147500
H -1.85720700 -5.54612600 -2.79004100
30
energy = -2625.43090312
C -0.07336200 0.30649900 -0.18408000
C -0.67356800 1.03379500 1.06384100
C -2.23229200 0.89685800 1.13026400
C -2.91096200 1.85388300 2.15864000
C -4.48370500 1.75026400 2.18839800
F -4.89529600 0.57978400 1.70887100
F -4.88707900 1.88063100 3.44563900
S -5.37549100 3.06376100 1.17850800
O -4.72712100 3.15593400 -0.10227000
O -6.77092200 2.79679300 1.34526400
O -5.04453900 4.36860900 2.03283300
F -2.44374900 1.54732200 3.36884000
F -2.58414400 3.13337000 1.88916100
F -2.74326300 1.12997700 -0.08072600
F -2.51011600 -0.35326600 1.51303100
F -0.33497800 2.32525800 0.98935700
F -0.16643500 0.51045900 2.18371300
C 1.44692200 -0.04865100 -0.11996600
C 2.47610600 1.09183500 0.13713600
C 2.54537600 2.24925700 -0.89967000
F 2.64869300 1.77046300 -2.12950200
F 1.46745000 3.01458300 -0.81760900
F 3.61216400 2.98698900 -0.63107000
F 3.67945300 0.50852300 0.15641800
F 2.22800900 1.62531200 1.34042600
F 1.62209800 -0.94781900 0.85403100
F 1.74480500 -0.61899300 -1.29335000
F -0.71293300 -0.85766200 -0.35251700
F -0.27611600 1.07430100 -1.25974200
H -4.21543700 4.76431900 1.71238400
30
energy = -2625.42896499
C 0.16047700 0.49106600 -0.30645400
C -0.36502100 1.08201100 1.06326700
C -0.28425900 2.63981300 1.14442200
C -0.71192000 3.23425200 2.52111800
C -0.40600000 4.75636400 2.73343100
F -0.96615700 5.09391600 3.88958200
F 0.91285400 4.91651800 2.80585600
S -1.00756800 5.97887800 1.43974500
O -1.12378400 7.24109100 2.10180500
O -0.20689700 5.76382200 0.26453300
O -2.48804200 5.44945600 1.17980600
F -2.02551100 3.03510600 2.66334600
F -0.06133300 2.60281600 3.50291300
F 0.94982100 3.04202200 0.84867400
F -1.15025400 3.12182900 0.22490700
F 0.31622200 0.52856100 2.06992100
F -1.65539800 0.76022600 1.19089900
C 1.58839800 -0.15781000 -0.31300200
C 2.79777000 0.76713300 -0.00220500
C 4.18199000 0.09751800 -0.25908300
F 4.25534400 -1.07198300 0.36007100
F 4.37481300 -0.08186200 -1.55536400
F 5.12807400 0.89557400 0.21148200
F 2.75218900 1.12864000 1.28507400
F 2.72797800 1.85529000 -0.77562300
F 1.58439000 -1.17922700 0.54789900
F 1.75793600 -0.63469200 -1.55494000
F -0.67068400 -0.49854000 -0.64604300
F 0.11632100 1.43257500 -1.25585900
H -2.47564400 4.77419500 0.47786100
30
energy = -2625.431550250001
C 0.03613100 0.32505000 -0.25447600
C -0.74671000 0.98629100 0.92006400
C -2.27677700 0.65761400 1.02984900
C -3.14269400 1.00650800 -0.21118600
C -4.66714700 0.64523900 -0.04401100
F -4.99189600 0.50338700 1.24412200
F -5.39956400 1.61167300 -0.57710100
S -5.13774700 -0.96188100 -0.89611900
O -5.23446600 -0.71063300 -2.30073200
O -4.33525300 -2.00383900 -0.31297100
O -6.62851200 -1.08655500 -0.33611600
F -3.04335900 2.31676000 -0.43491100
F -2.67430100 0.34336800 -1.27854400
F -2.42840900 -0.63513700 1.31718200
F -2.71925700 1.39720800 2.05638900
F -0.62117400 2.31260700 0.81849300
F -0.21330500 0.57861800 2.07868200
C 1.58168800 0.18871400 -0.06548700
C 2.41495800 1.47123400 0.23241900
C 2.40853200 2.59858900 -0.83919000
F 2.67637200 2.10645800 -2.03879400
F 1.23252900 3.20695800 -0.86830600
F 3.33863800 3.48536800 -0.51775500
F 3.68232300 1.06606900 0.37011300
F 1.99422700 1.99723700 1.38984200
F 1.80816100 -0.65945800 0.94227000
F 2.04727200 -0.35316100 -1.19738100
F -0.42471000 -0.91808600 -0.43348300
F -0.17531500 1.03954700 -1.36697500
H -6.62770600 -1.60554300 0.48671300
30
energy = -2625.43384669
C -0.11900400 0.56714000 -0.26800600
C -0.85990000 0.93484200 1.05032500
C -2.41650900 0.94679900 0.88972800
C -3.11675600 1.72319400 2.05160600
C -4.62372400 1.34922900 2.16873000
F -5.17343000 1.27868200 0.96216100
F -4.74490000 0.17782400 2.79260400
S -5.57420800 2.61867600 3.17902700
O -4.85084300 2.78925200 4.41145600
O -5.95269500 3.69377400 2.31532100
O -6.89208500 1.76289700 3.46460400
F -2.51591700 1.42622300 3.20516600
F -3.02008100 3.03437900 1.81605000
F -2.75289900 1.52339800 -0.26569800
F -2.85696100 -0.31678600 0.90137500
F -0.46510200 2.14998000 1.45037600
F -0.55758400 0.03064300 1.98633000
C 1.41181200 0.23872500 -0.17339600
C 2.37628900 1.39055700 0.29512500
C 2.82117400 1.29719100 1.78305300
F 1.76686700 1.16065700 2.57713500
F 3.63136300 0.26532100 1.95336700
F 3.46236400 2.40840600 2.10870100
F 1.79349700 2.57952800 0.10535300
F 3.48521500 1.33074200 -0.44555100
F 1.57997500 -0.82745700 0.61953700
F 1.76411900 -0.09590700 -1.41860100
F -0.70102100 -0.54381800 -0.74600300
F -0.27174300 1.55635200 -1.15103800
H -6.78323400 1.25214100 4.28540300
30
energy = -2625.4264238
C 0.18521100 0.13650500 0.10015000
C -0.58095900 0.54491800 -1.20034700
C -0.34118700 -0.26886300 -2.51389000
C -0.90822100 -1.74338000 -2.57374100
C 0.18230500 -2.85651400 -2.62180300
F 0.98285000 -2.72498700 -1.56646800
F -0.44035500 -4.02525900 -2.56820300
S 1.21969300 -2.87531500 -4.21290700
O 1.35378100 -4.24649900 -4.59567700
O 0.69275700 -1.85149000 -5.07785700
O 2.63868700 -2.41403900 -3.65840500
F -1.64766500 -1.98965600 -1.48412100
F -1.68746500 -1.86806000 -3.64302900
F -0.90667600 0.43109000 -3.48933300
F 0.99817900 -0.28696200 -2.72443600
F -0.24874400 1.81231100 -1.48166300
F -1.88577300 0.50516000 -0.91936500
C 1.74470900 0.28683600 0.18573000
C 2.34421500 1.66494500 -0.21138200
C 3.80039000 1.87688100 0.30184300
F 3.80807200 2.07762500 1.60815200
F 4.54373400 0.81584500 0.01495900
F 4.31309000 2.93833900 -0.30110300
F 1.58571600 2.64450200 0.28791400
F 2.37025200 1.74611900 -1.54756100
F 2.04869600 0.05437100 1.47034100
F 2.31847400 -0.65931900 -0.56456400
F -0.33074500 0.89228500 1.07433600
F -0.06953600 -1.15136900 0.36215100
H 2.67438800 -1.44312100 -3.60734300
30
energy = -2625.4308551700005
C -0.01670200 0.14049800 0.05128100
C -0.43408500 -1.36459100 -0.04453100
C -1.97969500 -1.55848500 -0.00950700
C -2.50178700 -3.02011100 0.19177800
C -2.22272600 -3.83312600 1.50349100
F -3.04923600 -4.87449200 1.46994100
F -0.96830200 -4.27073600 1.50345500
S -2.49295500 -2.97463800 3.15155800
O -2.68620800 -4.01217000 4.11631700
O -1.48797700 -1.95218000 3.26910900
O -3.91268700 -2.29493200 2.90042800
F -3.83172800 -2.93436200 0.06586600
F -2.00654800 -3.75343400 -0.81151300
F -2.50645600 -0.77230100 0.95534300
F -2.47361800 -1.16418400 -1.18390200
F 0.11834200 -2.01735800 0.97804100
F 0.01227500 -1.88074700 -1.19466600
C 1.44405800 0.38100400 -0.44544800
C 2.03540800 1.77263500 -0.02044200
C 2.88647500 1.74504500 1.28256200
F 2.23651000 1.13030600 2.25902600
F 4.03108700 1.11876400 1.05863900
F 3.14106800 2.99161400 1.65069900
F 1.03204600 2.64446800 0.14283700
F 2.82864500 2.20556900 -1.00258700
F 2.23229500 -0.59521200 0.02940600
F 1.43547100 0.32394500 -1.77780600
F -0.84003500 0.87547700 -0.70536600
F -0.13181800 0.51823900 1.32589600
H -3.78744400 -1.40506000 2.52468000
30
energy = -2625.4308763400004
C 0.29874500 0.04782300 -0.27826300
C -0.42949000 -1.32714000 -0.33455500
C -1.99711000 -1.31371100 -0.25033400
C -2.77642200 -0.56849900 -1.40420700
C -3.27579800 0.86736800 -1.07435200
F -4.03403000 0.85686200 0.01490800
F -2.23679700 1.67690100 -0.90198900
S -4.32709300 1.62017000 -2.45234100
O -4.56214700 2.97400400 -2.05444200
O -3.76150900 1.24575400 -3.72072400
O -5.69332000 0.82595200 -2.23874600
F -2.00035600 -0.52176700 -2.48713500
F -3.87432800 -1.29253500 -1.68934200
F -2.35465400 -2.60083600 -0.31241700
F -2.35528100 -0.82717800 0.94090700
F -0.02593300 -2.03826300 0.72928500
F -0.07468900 -1.96749500 -1.44933100
C 1.81884100 -0.09584800 0.05863800
C 2.63040400 1.17596100 -0.33407300
C 4.01984200 1.25741500 0.36246200
F 3.87773200 1.53466300 1.64818100
F 4.65882800 0.10192900 0.23090900
F 4.73399900 2.21449300 -0.20880900
F 1.92912400 2.26407100 0.00622500
F 2.82900600 1.16667400 -1.65370100
F 1.94302600 -0.30145100 1.37413300
F 2.32344900 -1.14208100 -0.60292800
F 0.17427300 0.65323800 -1.46485900
F -0.26809400 0.80041700 0.67080100
H -5.68648700 0.01297900 -2.77353100
30
energy = -2625.4265799900004
C 0.18518300 0.13662500 0.09983000
C -0.58243300 0.54370200 -1.20021800
C -0.34361600 -0.27054200 -2.51368000
C -0.90907300 -1.74600000 -2.57285000
C 0.18253100 -2.85821500 -2.62215400
F 0.97960900 -2.72856400 -1.56363700
F -0.43915000 -4.02772600 -2.57381500
S 1.22618900 -2.87110600 -4.20882400
O 1.37761600 -4.24142500 -4.58819200
O 0.68954200 -1.85548500 -5.07734500
O 2.63748500 -2.39319900 -3.64947300
F -1.64669000 -1.99279100 -1.48207100
F -1.68972600 -1.87084400 -3.64090600
F -0.90976400 0.42849900 -3.48904500
F 0.99628100 -0.28683300 -2.72494700
F -0.25165800 1.81123200 -1.48241200
F -1.88690200 0.50267400 -0.91786600
C 1.74498900 0.28601100 0.18314800
C 2.34519800 1.66305800 -0.21702200
C 3.80255500 1.87342400 0.29350300
F 3.81276500 2.07619300 1.59946000
F 4.54333500 0.81046900 0.00700400
F 4.31613100 2.93294500 -0.31200600
F 1.58869900 2.64422200 0.28192200
F 2.36930100 1.74243700 -1.55340900
F 2.05060600 0.05543500 1.46764700
F 2.31747500 -0.66180200 -0.56642700
F -0.32908800 0.89424300 1.07342500
F -0.07029900 -1.15060300 0.36384100
H 2.65078100 -1.42313500 -3.57110100
30
energy = -2625.4319417600004
C -0.06524300 0.03848200 0.12191800
C -0.79431600 0.82247000 1.24407500
C -2.36068300 0.76281300 1.20569200
C -3.02564800 -0.64691900 1.27038700
C -4.51108500 -0.56055400 1.73815500
F -4.56037800 -0.43733200 3.05701400
F -5.11719300 0.47798200 1.16203800
S -5.47447200 -2.10342200 1.26118400
O -5.84829200 -1.99383900 -0.12361900
O -4.77341100 -3.22229500 1.81465300
O -6.77752300 -1.85121700 2.15202900
F -3.00285300 -1.19101000 0.04869200
F -2.36256800 -1.42192000 2.12703500
F -2.77350600 1.45941900 2.27613200
F -2.77679400 1.37427500 0.09560600
F -0.49247100 2.12307200 1.13094800
F -0.37527800 0.37246700 2.42885800
C 1.50202300 0.04703100 0.13440300
C 2.23925500 1.42430200 -0.03377000
C 2.76819700 2.02982600 1.30144600
F 1.83249500 2.00806100 2.24180300
F 3.81539100 1.33789100 1.72037500
F 3.13378800 3.28415500 1.08895500
F 1.42882500 2.30883900 -0.62398000
F 3.30402700 1.23273900 -0.81642900
F 1.91526800 -0.53229100 1.26982500
F 1.85501700 -0.72659200 -0.89626600
F -0.40531500 -1.25312600 0.25176100
F -0.48716100 0.48597000 -1.06361600
H -7.48631600 -1.49554800 1.58838400
30
energy = -2625.43201226
C 0.13489700 1.04387800 -0.36277900
C -0.65989400 1.77609400 0.77946100
C -1.98427200 1.05891800 1.18129700
C -2.61347800 1.53357100 2.53647800
C -2.84481400 3.06510300 2.65764400
F -1.68469000 3.67887900 2.86496400
F -3.41275000 3.53743400 1.54691800
S -3.95894100 3.54432600 4.09606400
O -3.68330800 2.66269900 5.18924400
O -3.88257500 4.97798600 4.18501800
O -5.38406500 3.14578500 3.49894400
F -3.80061000 0.92256100 2.62986900
F -1.82855500 1.14010800 3.53647700
F -2.88491600 1.25739100 0.21557000
F -1.75692900 -0.25319700 1.30861200
F -0.98826900 2.99384300 0.33540600
F 0.11885400 1.90998800 1.86134200
C 1.19531200 -0.01914400 0.11688500
C 2.68660300 0.44164800 0.20968300
C 3.02784300 1.58682300 1.19898800
F 2.41811600 2.71084100 0.84214500
F 2.65770300 1.25729900 2.42651100
F 4.33581300 1.78823300 1.18000900
F 3.10256800 0.80086400 -1.00775700
F 3.37766500 -0.63379700 0.60798100
F 0.83762300 -0.51978200 1.30530900
F 1.18950900 -1.00739300 -0.78348200
F -0.75384600 0.41918900 -1.14346600
F 0.75401000 1.97350100 -1.09720900
H -5.79512000 3.92613100 3.08801000
30
energy = -2625.425993
C 0.71166600 0.65998900 0.00980300
C -0.38570100 0.61557900 -1.11916900
C -0.87699000 2.00756800 -1.65979500
C -2.05428700 2.78302800 -0.95966100
C -1.84077700 3.50574700 0.41407200
F -0.62395700 4.02140300 0.50467900
F -2.73164900 4.50160900 0.48139900
S -2.16596000 2.47936100 1.96198300
O -1.79857100 1.11634200 1.72119800
O -1.65573100 3.26405800 3.05341000
O -3.75927400 2.52087800 1.98356200
F -2.34956200 3.76633600 -1.82331600
F -3.11404800 1.97626600 -0.85052800
F 0.16750500 2.83624900 -1.76643500
F -1.35440900 1.75754200 -2.88676500
F -1.43561100 -0.07956500 -0.69122300
F 0.13909800 -0.03466900 -2.16928700
C 2.17301100 0.52541100 -0.51856400
C 3.29448400 0.90025300 0.50513300
C 3.24521500 0.18175000 1.88097500
F 2.23924800 0.64855000 2.60545800
F 3.09758500 -1.12457600 1.71092000
F 4.37913500 0.40964500 2.52558400
F 3.26867100 2.21793400 0.71958600
F 4.45362800 0.57421600 -0.07921000
F 2.37079200 -0.73890700 -0.89918200
F 2.34055200 1.34058400 -1.56765400
F 0.61873000 1.82113600 0.68221200
F 0.49118500 -0.35505900 0.84252200
H -4.06564300 3.31577100 2.45368600
30
energy = -2625.43582399
C -0.11441500 0.04823100 -0.04268500
C -0.79783600 -1.34224300 0.16112200
C -2.35651500 -1.30586500 0.07776300
C -3.00269500 -2.73072100 0.12994700
C -4.51656800 -2.66103400 0.49339300
F -4.64846400 -2.49849900 1.80977700
F -5.10300300 -1.65642500 -0.14618400
S -5.41063400 -4.25072600 0.03643900
O -5.76878600 -4.18645300 -1.34658800
O -4.66493500 -5.32970000 0.62847500
O -6.74954000 -4.02285300 0.87696300
F -2.87674200 -3.29785700 -1.07340100
F -2.38869900 -3.48145200 1.04401700
F -2.81344300 -0.58857100 1.11363000
F -2.74018500 -0.73248900 -1.06388900
F -0.46164600 -1.78536300 1.37559200
F -0.34604900 -2.18824500 -0.77346800
C 1.43649400 -0.05556200 -0.18185000
C 2.21848900 1.28298600 0.01267700
C 1.77390800 2.47496100 -0.87725600
F 1.67379500 2.09226800 -2.14197300
F 0.60158100 2.93856100 -0.46583400
F 2.67248900 3.44219400 -0.78550600
F 3.49684700 1.01515700 -0.27682200
F 2.12647700 1.65653400 1.29165400
F 1.90982700 -0.90438400 0.73881400
F 1.71349100 -0.52945400 -1.39937300
F -0.57420000 0.62237600 -1.16058000
F -0.42206500 0.81558100 1.00904400
H -6.64626800 -4.39441800 1.77013500
30
energy = -2625.4260514700004
C 0.33264800 0.13644500 -0.07659400
C -0.13467600 -1.32361600 0.35002200
C -0.10235400 -2.42903300 -0.75549800
C 1.30414600 -2.97080600 -1.17697000
C 2.14089900 -3.72209000 -0.08680700
F 2.87712800 -2.84656400 0.58052400
F 1.35522000 -4.38843100 0.75199700
S 3.31753300 -5.00608400 -0.82345200
O 4.43006800 -5.09108300 0.07194800
O 2.52367500 -6.13677400 -1.22137700
O 3.82620700 -4.23603400 -2.12723400
F 1.06532000 -3.82676300 -2.19080800
F 2.04865700 -1.96435100 -1.63728300
F -0.81098200 -3.46066600 -0.28743000
F -0.70403700 -1.97521400 -1.85939000
F -1.40001200 -1.23892000 0.75843300
F 0.61338300 -1.78170100 1.36792600
C 1.59561000 0.62835600 0.68941100
C 2.04458200 2.09967900 0.34298300
C 1.55897900 3.17472400 1.36034500
F 0.25270600 3.07113000 1.56104200
F 2.19289700 3.03797700 2.51351300
F 1.82364200 4.37414000 0.86442200
F 1.59587900 2.45219000 -0.86685100
F 3.37875000 2.13099400 0.33650600
F 1.36031600 0.56924100 2.00786300
F 2.59283200 -0.20382900 0.37723700
F 0.60579700 0.15098400 -1.38604800
F -0.66621000 0.98581100 0.16490800
H 3.24530200 -4.45037500 -2.87847200
30
energy = -2625.43435521
C -0.05415100 0.07201400 -0.08951500
C -0.73731600 -1.31230200 0.09789400
C -2.30600200 -1.31490100 0.07433400
C -3.00773500 -0.77890700 -1.21316300
C -4.45654500 -1.33850100 -1.36456900
F -4.40545300 -2.56147700 -1.86685200
F -5.06048800 -1.35216100 -0.17818000
S -5.55220000 -0.28283300 -2.48744400
O -6.46574400 -1.18256000 -3.12208700
O -5.95755800 0.86557800 -1.72285000
O -4.50192900 0.17936200 -3.59846200
F -3.07708600 0.56154400 -1.14105500
F -2.30376400 -1.12556100 -2.29155600
F -2.66178700 -2.59844300 0.22744400
F -2.74130800 -0.60528400 1.11607700
F -0.40243900 -1.78959200 1.30083500
F -0.29011600 -2.14266300 -0.84873700
C 1.50106100 -0.01127600 -0.18026000
C 2.25692500 1.34459600 0.00061700
C 1.82128000 2.50439600 -0.93525400
F 1.76253200 2.08496600 -2.19145200
F 0.62942200 2.95960600 -0.57162000
F 2.70093700 3.48804600 -0.84596100
F 3.54687400 1.08920400 -0.24310000
F 2.11943700 1.75112700 1.26501400
F 1.95646100 -0.82621900 0.77822400
F 1.82259700 -0.51419600 -1.37485600
F -0.48970800 0.60828500 -1.24161100
F -0.40570300 0.86202000 0.92882700
H -4.11483800 1.03580100 -3.34435300
30
energy = -2625.428561930001
C 0.19822800 -0.17240500 0.16875000
C -0.70725300 0.47852500 1.26870800
C -0.52669100 -0.08583100 2.71422600
C -1.14058900 0.86339100 3.78991900
C -1.36656200 0.14052400 5.15372500
F -2.49757800 -0.54489700 5.10177700
F -0.34673200 -0.67748500 5.40556900
S -1.45783500 1.32838500 6.61924000
O -2.32928500 0.72452500 7.57978300
O -0.11323200 1.74795200 6.90818000
O -2.25283300 2.54965600 5.96457700
F -0.30291600 1.89764900 3.97315100
F -2.31424700 1.32462200 3.35350300
F -1.14521400 -1.26784500 2.79064600
F 0.76918000 -0.24564800 2.98758700
F -1.96770100 0.22554200 0.90513400
F -0.52713100 1.80604100 1.28352800
C 1.73111300 0.14627500 0.03345600
C 2.16147300 1.64875900 -0.11312600
C 2.66266000 2.30307500 1.21012500
F 1.83648000 2.04094100 2.21820800
F 3.86342400 1.83931300 1.51098700
F 2.73041900 3.61408000 1.04445100
F 1.14563000 2.36946300 -0.60010500
F 3.17799400 1.70498500 -0.97645400
F 2.40508700 -0.39884700 1.05189100
F 2.09405700 -0.48225100 -1.09036500
F 0.11308500 -1.50022700 0.34074900
F -0.35517700 0.15347200 -1.00410400
H -1.61896500 3.19856800 5.61089200
30
energy = -2625.43040505
C 0.21776000 -0.00483200 -0.14411700
C -0.61649900 0.72393000 -1.24791500
C -0.50568900 0.16698900 -2.70115700
C -1.61237400 0.71883400 -3.68044500
C -2.81494800 -0.24657400 -3.91717100
F -3.32164200 -0.61496400 -2.74352100
F -3.72611300 0.42576800 -4.60739800
S -2.43012100 -1.80176300 -4.94268600
O -3.56824700 -2.00239400 -5.78548800
O -1.08129100 -1.69636900 -5.43458700
O -2.48401300 -2.92921700 -3.81899400
F -2.12181300 1.85136300 -3.17419600
F -1.05234200 1.00135900 -4.85228800
F 0.68525700 0.48407500 -3.19379500
F -0.60738200 -1.18112600 -2.64282000
F -0.25050700 2.00982900 -1.25717000
F -1.89217400 0.62063500 -0.85604700
C 1.77078000 -0.06301200 -0.28799000
C 2.51723200 1.29895600 -0.41639200
C 4.03858400 1.19389300 -0.09420000
F 4.22872500 1.05773700 1.20741200
F 4.56688200 0.15428100 -0.72657900
F 4.63888100 2.30019300 -0.50371400
F 1.97800900 2.18997500 0.42133500
F 2.39477000 1.73981400 -1.67124600
F 2.21599100 -0.68036800 0.81548900
F 2.06117600 -0.81747600 -1.35438900
F -0.07245100 0.61010500 1.00609500
F -0.20243800 -1.27396500 -0.06883500
H -1.60561900 -3.03096900 -3.41375300
30
energy = -2625.4280486000007
C 0.41513500 0.05287700 0.33661000
C -0.15933800 0.45507000 1.73207000
C -1.70387000 0.68980000 1.79190300
C -2.68040000 -0.44170200 1.35422400
C -2.66971100 -1.81126800 2.10512300
F -3.66389000 -2.52333200 1.58647400
F -1.51176700 -2.42662700 1.87788300
S -2.90463000 -1.81529400 3.97629400
O -3.51697300 -3.06860900 4.29166800
O -1.66870400 -1.36247200 4.55358600
O -4.01975800 -0.69333600 4.16339900
F -3.91014200 0.07369000 1.47105500
F -2.44504200 -0.71006300 0.06454200
F -1.99093900 0.99963400 3.07691000
F -1.99174300 1.75055200 1.03738600
F 0.38520400 1.61916600 2.11408300
F 0.16619700 -0.49055800 2.61037700
C 1.97769800 0.23756500 0.21744000
C 2.50514000 1.51004100 -0.52154000
C 2.16005200 2.89894600 0.07717400
F 0.85309600 3.12090200 0.02280000
F 2.56691000 2.97017100 1.33527900
F 2.77920000 3.83010500 -0.63116600
F 2.06879000 1.47947900 -1.78418900
F 3.83993700 1.40724200 -0.51606100
F 2.52324000 0.19467900 1.43938800
F 2.44016200 -0.79378600 -0.49506500
F 0.14721100 -1.24270800 0.16025700
F -0.19692900 0.75407500 -0.62564200
H -3.59687200 0.18074200 4.24251500
30
energy = -2625.42768151
C 0.27935000 0.30525300 0.08906000
C -0.89375800 0.84394800 0.97003000
C -0.90807200 2.36610500 1.33078700
C -1.13883300 3.38429700 0.16289300
C -1.65283200 4.77884600 0.66649900
F -1.16485500 5.04998600 1.87226700
F -1.23485600 5.71232400 -0.19078400
S -3.52407000 4.97870200 0.75892400
O -4.12409400 3.75174800 1.18451300
O -3.73222100 6.23985900 1.41869500
O -3.84982200 5.14688500 -0.79487100
F 0.02914600 3.59968100 -0.44644300
F -2.00919100 2.90825700 -0.73152300
F -1.89474200 2.51655000 2.22066900
F 0.25571100 2.68240300 1.91278800
F -0.90016900 0.16885400 2.12419400
F -2.02277200 0.56266600 0.31265700
C 1.71994400 0.22272400 0.75352300
C 2.75823900 1.20031400 0.13144700
C 4.12575800 1.23351800 0.87813900
F 3.98744500 1.78862200 2.07160100
F 4.61279800 0.00947600 1.01967400
F 4.97602600 1.95634000 0.16405500
F 2.26603600 2.44376800 0.15061600
F 2.98985100 0.82405900 -1.12974400
F 1.64525400 0.46710900 2.06816100
F 2.17909500 -1.01769500 0.57760100
F -0.07038100 -0.93567400 -0.25311800
F 0.32911600 1.05336400 -1.02584800
H -3.81391800 6.08830100 -1.03788100
30
energy = -2625.42304281
C 0.22799400 0.50034300 -0.21613700
C -0.42396200 0.96784800 1.12872400
C -0.19998300 0.20645700 2.48529300
C -1.07841000 -1.03811600 2.87717900
C -0.86489600 -2.36937200 2.06441000
F 0.22653200 -2.26858600 1.30505600
F -0.70490800 -3.37576300 2.91434500
S -2.30531500 -2.90271100 0.97317100
O -1.74441100 -3.77572400 -0.02285400
O -3.36950600 -3.27627300 1.85326800
O -2.71929100 -1.53038600 0.27696300
F -0.72807900 -1.29824200 4.14056900
F -2.36449000 -0.68476800 2.85549200
F 1.08745600 -0.13389600 2.60153700
F -0.49242400 1.11097300 3.42886600
F -1.74115500 1.02640100 0.89862700
F 0.03496900 2.21203800 1.32166500
C 1.78133600 0.35126800 -0.34370900
C 2.62812400 1.58324700 0.08905200
C 4.10264000 1.52111300 -0.41183600
F 4.63180000 0.33815200 -0.13177000
F 4.15556600 1.72635600 -1.71725600
F 4.79946600 2.46419000 0.20216300
F 2.65013500 1.64237900 1.42376800
F 2.07511700 2.69748500 -0.39990100
F 2.17843200 -0.71724000 0.34737300
F 2.00669700 0.13024700 -1.64744400
F -0.29036800 -0.69205300 -0.57666200
F -0.16179300 1.40060400 -1.12259000
H -2.25969700 -1.44450800 -0.57623800
30
energy = -2625.4305984999996
C 0.36865300 -0.06359600 0.06718400
C -0.03737000 -1.47918600 0.62933200
C -0.16443100 -2.67300400 -0.38006300
C 1.10768500 -3.09537100 -1.15926900
C 0.93835000 -4.30023300 -2.14149400
F 0.03274900 -3.99376100 -3.07120600
F 2.12266400 -4.48163500 -2.71975100
S 0.46975600 -5.98168100 -1.44235800
O 0.72815400 -6.91526900 -2.50561200
O 1.01857400 -6.10447700 -0.12687300
O -1.11077000 -5.80414700 -1.30280500
F 1.49476200 -2.06900700 -1.93217500
F 2.07555400 -3.39246000 -0.29383400
F -0.54913800 -3.72014600 0.36122300
F -1.13008100 -2.37951400 -1.25795500
F -1.26037600 -1.35670100 1.15546700
F 0.81407200 -1.82828500 1.60052200
C 1.87692100 0.29276700 0.26799900
C 2.32832300 1.48012900 -0.63601000
C 3.65611400 2.14297500 -0.16568700
F 3.45430100 2.84687100 0.93627200
F 4.57171000 1.21253200 0.07010600
F 4.09546900 2.95029000 -1.11881900
F 1.37664700 2.42111100 -0.63977000
F 2.50662900 1.02304500 -1.87746800
F 2.05621600 0.62635200 1.55066600
F 2.64260900 -0.76527800 -0.02036100
F 0.06261100 0.01383900 -1.23521700
F -0.34213400 0.85176100 0.72779900
H -1.54469900 -6.13998800 -2.10646100
30
energy = -2625.4307438200003
C 0.09218000 -0.16228000 -0.15730600
C -0.43251500 -1.63482300 -0.03526500
C -0.20474600 -2.36272700 1.32981300
C -1.19127900 -3.56234900 1.56969000
C -2.53840200 -3.19390100 2.27999700
F -2.92464500 -1.95879900 1.97986000
F -3.47455300 -4.05501500 1.88075000
S -2.49489300 -3.29430200 4.15948500
O -1.23001600 -2.81193100 4.62370400
O -3.75911400 -2.76584500 4.59763500
O -2.50825300 -4.87860600 4.35459700
F -1.48182400 -4.12314900 0.38951600
F -0.56510000 -4.47300700 2.32035300
F 1.02887800 -2.87144600 1.32104000
F -0.31716000 -1.48974000 2.33645000
F 0.14226500 -2.36244500 -0.99554900
F -1.75059100 -1.55792800 -0.27352400
C 1.61588800 0.04215100 0.06707500
C 2.07741600 1.54753300 0.00445800
C 2.25317600 2.22392800 1.39574600
F 1.16727600 2.05695400 2.13607900
F 3.29855300 1.71233800 2.02575800
F 2.45454300 3.52053600 1.21287400
F 1.19156400 2.26894000 -0.69232600
F 3.25860100 1.59465000 -0.61501600
F 1.95078000 -0.45450900 1.26850500
F 2.26242600 -0.64190300 -0.87831000
F -0.19307600 0.20813600 -1.41155500
F -0.58635800 0.60858600 0.69688200
H -3.42479900 -5.18399600 4.47030000
30
energy = -2625.42298409
C 0.62636600 0.92453900 -0.09148200
C 0.25945200 0.89331400 1.42110800
C -0.58388300 2.13927600 1.89847500
C 0.20021000 3.22657500 2.71021300
C 0.88540800 2.91537200 4.09602600
F 2.12786100 2.49132600 3.91238200
F 0.92195700 4.06480500 4.77587400
S 0.06486800 1.67595400 5.23253200
O -0.09038600 0.44870400 4.51039600
O 0.74070100 1.77213100 6.49764100
O -1.37544100 2.35402500 5.36675300
F 1.16534300 3.69900100 1.91260500
F -0.69461900 4.19407600 2.94151100
F -1.06089800 2.79802100 0.83159500
F -1.61997400 1.72237700 2.62295500
F 1.39404800 0.86507500 2.13401500
F -0.43979700 -0.21767600 1.64207300
C 1.48584200 -0.31997500 -0.55785200
C 2.67453900 0.05964600 -1.49319500
C 3.86229500 0.82610400 -0.78755200
F 3.56714900 1.09512500 0.48131300
F 4.95616700 0.08416200 -0.81188300
F 4.09988000 1.96365200 -1.41710200
F 2.19711300 0.80406200 -2.49542000
F 3.15054800 -1.08208500 -1.99546000
F 1.97203600 -1.00127500 0.48673200
F 0.69033100 -1.13587200 -1.25209000
F -0.49606300 0.93355500 -0.80990000
F 1.30756600 2.05849100 -0.32872300
H -1.40330500 2.90102000 6.17135800
30
energy = -2625.43163429
C 0.29013300 -0.21591800 -0.60455600
C -0.72327300 0.35543900 -1.64723900
C -2.20837300 0.11183500 -1.22128000
C -3.20817900 0.26231900 -2.40229500
C -4.71642100 0.26786200 -1.99487300
F -5.41106300 0.34500700 -3.13614500
F -5.00412600 -0.86692600 -1.37025200
S -5.32261400 1.69535100 -0.92683500
O -5.19333400 1.32502600 0.44773500
O -4.78772300 2.90406300 -1.49523000
O -6.87683500 1.59678100 -1.27713100
F -2.93615700 1.38605100 -3.06842600
F -3.06068500 -0.78543600 -3.22156500
F -2.33319800 -1.11755700 -0.71361800
F -2.52563200 1.01580500 -0.28677100
F -0.49550000 -0.24167200 -2.82102100
F -0.54213100 1.67320700 -1.77965500
C 1.76120100 0.32326700 -0.78128400
C 2.23434300 1.47514800 0.16283200
C 1.49053200 2.83478400 0.08872500
F 1.50499500 3.29846200 -1.15183800
F 0.23648300 2.70578600 0.49775000
F 2.11022500 3.69752400 0.87936600
F 3.51063100 1.71420600 -0.16573300
F 2.18189100 1.03772200 1.42429500
F 2.58738100 -0.69604600 -0.52651100
F 1.93806500 0.71093800 -2.05170000
F -0.14921800 0.05939200 0.63079400
F 0.31964100 -1.53967500 -0.76639600
H -7.07009200 2.10175700 -2.08572800
30
energy = -2625.42719654
C 0.15001300 0.30469800 -0.02904500
C -0.34614700 1.07482400 1.24563700
C -0.29620600 2.64542600 1.31684800
C -0.95350200 3.43221500 0.13907700
C -1.37762500 4.89859600 0.51580500
F -0.61139100 5.36834000 1.50399500
F -1.22853800 5.66953900 -0.55243100
S -3.17610400 5.05535400 1.04474900
O -3.97234300 5.05741100 -0.14326500
O -3.39816000 4.17241000 2.15837900
O -3.12359000 6.55805300 1.58396900
F -0.06330900 3.52795100 -0.84904000
F -2.03576400 2.77549100 -0.29842100
F -0.94093600 2.94708100 2.45085300
F 0.96850200 3.05716800 1.42609700
F 0.36845300 0.63727700 2.29304900
F -1.62675500 0.74151500 1.42084100
C 1.65980800 -0.10667400 -0.11654100
C 2.70825800 1.03142800 -0.00235200
C 4.10166100 0.65567700 -0.58826900
F 4.46730600 -0.54249400 -0.15302300
F 4.06460500 0.65064500 -1.91000400
F 4.99059600 1.55154800 -0.18674300
F 2.87288400 1.32844800 1.28928100
F 2.25792000 2.10907200 -0.66037300
F 1.90843600 -1.01223000 0.83025100
F 1.80031600 -0.68252600 -1.32086300
F -0.51283500 -0.85772600 -0.04391200
F -0.17210700 0.99115200 -1.13051700
H -2.93994000 6.55765100 2.53928100
30
energy = -2625.4224712200003
C 0.50241300 0.54853500 -0.17076600
C -0.79568400 0.79436000 -1.02703200
C -1.06517200 2.28531100 -1.46069900
C -2.16432300 3.09456100 -0.68591400
C -1.97040000 3.47659900 0.82399700
F -0.70522700 3.84743500 1.01504900
F -2.77976900 4.50566400 1.05150400
S -2.36433600 2.23504700 2.19625100
O -1.34277500 1.22358800 2.18044800
O -2.66547500 3.02779000 3.34728700
O -3.73801800 1.60475400 1.69792800
F -2.21964700 4.26624400 -1.33134100
F -3.33720000 2.46677800 -0.84517300
F 0.06715900 2.99169200 -1.44990600
F -1.52397600 2.23724000 -2.71679900
F -1.86513500 0.35650100 -0.32924500
F -0.71397100 0.04599500 -2.12828800
C 1.75632400 0.24312000 -1.05460700
C 3.11638400 0.33382100 -0.27412400
C 3.83717600 1.70953500 -0.38375300
F 4.32846500 1.86321500 -1.60378400
F 3.00388500 2.70578700 -0.12291200
F 4.83240900 1.73974100 0.48910500
F 3.94450000 -0.58450800 -0.77764800
F 2.90270500 0.06246200 1.01819100
F 1.63447200 -0.99946100 -1.52239000
F 1.79017300 1.09755800 -2.09041700
F 0.74841800 1.61557700 0.59488600
F 0.28309500 -0.51441800 0.60009600
H -3.56068900 0.86043400 1.09520700
30
energy = -2625.4285820200007
C -0.18239000 0.63286000 -0.66460400
C -0.37700100 1.35166800 -2.03931900
C -0.23968200 0.43214300 -3.32031200
C -1.40390100 0.53639300 -4.36329200
C -2.66109900 -0.29537900 -3.95831700
F -2.48492700 -1.55754900 -4.32407300
F -2.86082900 -0.24486000 -2.63937300
S -4.21442700 0.34283300 -4.79531800
O -4.66941300 1.50456000 -4.07927900
O -3.96340800 0.31663600 -6.20438300
O -5.18947000 -0.87441300 -4.44803900
F -1.73519200 1.81852900 -4.55126300
F -0.94874000 0.03903900 -5.51161100
F 0.88002600 0.76720900 -3.95627600
F -0.15847800 -0.86000800 -2.95686600
F 0.52767600 2.33275200 -2.12000800
F -1.59592300 1.90166900 -1.99819100
C 1.28093300 0.11544300 -0.40488800
C 2.17025600 0.93848000 0.58210100
C 2.53630800 2.39790700 0.18813100
F 3.05125900 2.42644900 -1.03248000
F 1.47588200 3.18887500 0.23315600
F 3.43831000 2.84646900 1.04822100
F 3.32544600 0.26626200 0.67085800
F 1.58225200 0.95502700 1.78124200
F 1.19594200 -1.10851200 0.12001600
F 1.93261200 0.03795200 -1.57743600
F -0.51561500 1.52008000 0.28177100
F -1.03489700 -0.38979400 -0.59051300
H -5.75155100 -0.62989700 -3.69243200
30
energy = -2625.4283389600005
C -0.11074300 0.14121300 -0.00121700
C -0.64043100 0.80405300 1.31162100
C -0.13287300 0.37055500 2.72987100
C -0.39434000 -1.10008100 3.14827200
C 0.25447600 -1.55811200 4.49886200
F -0.21583100 -2.78250000 4.73845400
F 1.57405300 -1.60537200 4.34997500
S -0.05141900 -0.55744400 6.05676700
O 0.16352100 -1.45554400 7.15929200
O 0.63219400 0.69079400 5.91015700
O -1.62061700 -0.28899000 5.92330100
F -1.71098900 -1.30337000 3.21871100
F 0.12906700 -1.91750600 2.22474000
F 1.17294200 0.62549100 2.83340700
F -0.80625100 1.15265300 3.58303800
F -1.96696100 0.62045100 1.29788600
F -0.37994200 2.11397000 1.22399700
C 1.42107300 0.05017400 -0.25933400
C 2.24622100 1.36982400 -0.36467900
C 1.79947700 2.41144500 -1.43405700
F 1.49623700 1.81118100 -2.57576700
F 0.74995900 3.09451700 -1.00547200
F 2.79930500 3.25464300 -1.64155800
F 3.49260200 0.99248000 -0.67188100
F 2.25332500 1.97514000 0.82701700
F 1.97367600 -0.67587100 0.72153700
F 1.56388700 -0.60950500 -1.41413900
F -0.59230700 -1.10295800 -0.07028200
F -0.64173400 0.85307000 -1.00795500
H -2.10473100 -0.92787700 6.47526500
30
energy = -2625.430799
C 0.33715500 0.13157900 -0.11039900
C 0.67963900 -1.40334700 -0.03058200
C 0.84707000 -1.94152500 1.42947800
C 1.70984400 -3.23578100 1.62059700
C 1.21525000 -4.50664300 0.88032300
F 0.08878800 -4.92487700 1.43583600
F 1.01697700 -4.23492300 -0.40859300
S 2.46321500 -5.93082700 0.89255900
O 1.69239400 -7.13543300 0.93186100
O 3.43961500 -5.63406100 -0.12038600
O 3.14542300 -5.76350800 2.32542200
F 2.97396800 -2.98275500 1.24801600
F 1.69176400 -3.48649800 2.93325500
F 1.44441000 -1.00985600 2.18336100
F -0.36881900 -2.19027800 1.92142800
F 1.79425300 -1.64364200 -0.73403400
F -0.33889000 -2.05964800 -0.58928600
C 1.58645800 1.05854000 -0.25626700
C 1.28451400 2.57651600 0.00892100
C 1.56686400 3.04401500 1.46688600
F 1.01769200 2.21460400 2.34306900
F 2.87232700 3.09826200 1.67969600
F 1.05185700 4.25204600 1.63586200
F 0.00283800 2.83267400 -0.27907600
F 2.06259600 3.30168600 -0.79735100
F 2.55827400 0.66145700 0.57852700
F 2.02393400 0.93549000 -1.51051600
F -0.41684100 0.31846000 -1.19506000
F -0.37613400 0.46872400 0.97246600
H 3.94419600 -5.21267900 2.24549700
30
energy = -2625.4362141600004
C 0.00203800 -0.05105200 -0.08087800
C -0.53962700 -1.51685600 -0.14993600
C -2.09278400 -1.59590200 -0.16103500
C -2.68742600 -3.03624600 0.00214500
C -2.35956900 -3.79712700 1.32492500
F -1.22160200 -4.47718200 1.18503900
F -2.26598200 -2.96057000 2.35031300
S -3.68996900 -5.06718600 1.72452800
O -4.77224400 -4.40455500 2.38409900
O -3.83735200 -5.89183000 0.55430500
O -2.89902800 -5.89065800 2.84126800
F -4.01729500 -2.88885800 -0.06839200
F -2.26620800 -3.77895300 -1.02123000
F -2.57389000 -0.81474300 0.81117400
F -2.53052500 -1.15220300 -1.34288100
F -0.09074100 -2.17103200 0.93011600
F -0.07503500 -2.11191300 -1.25268000
C 1.49135600 0.04775200 -0.52890600
C 2.24305600 1.34747700 -0.09957200
C 1.57878200 2.68788600 -0.51486200
F 1.27091600 2.66732500 -1.80364900
F 0.47641000 2.88953700 0.19421300
F 2.42392400 3.67963700 -0.28509300
F 3.44763200 1.29424300 -0.67922800
F 2.39345500 1.34487300 1.22720200
F 2.16494700 -0.97785100 0.01082600
F 1.54037100 -0.04273800 -1.85988200
F -0.72663800 0.73226100 -0.88556200
F -0.11246300 0.37697600 1.17937100
H -2.39370500 -6.61002100 2.42476500
30
energy = -2625.43337327
C 0.03188800 0.01200600 0.13854500
C -0.70108800 0.65170600 -1.08191000
C -2.20766200 0.23365900 -1.14623900
C -3.05783800 1.18225500 -2.03793900
C -4.50309500 0.67686800 -2.34846900
F -5.15537800 0.49481500 -1.20733500
F -5.09287200 1.64686800 -3.05733700
S -4.67488700 -0.88992400 -3.38007000
O -3.75392200 -0.77468700 -4.47921800
O -4.74104900 -2.01276800 -2.49795600
O -6.15916100 -0.64905900 -3.91554500
F -3.21488400 2.34537500 -1.39541500
F -2.41652000 1.39555400 -3.18854300
F -2.28114300 -0.99886400 -1.66173500
F -2.72220100 0.23462100 0.08691100
F -0.10927500 0.26120800 -2.21239800
F -0.62447900 1.98349900 -0.97584400
C 1.59145800 -0.04223300 0.06501600
C 2.38057100 1.28372500 -0.14825700
C 2.23120200 2.39149900 0.93255400
F 1.01958100 2.92507000 0.89032400
F 2.44891700 1.89699600 2.14135800
F 3.12250300 3.33962400 0.68559700
F 2.02777900 1.80515600 -1.33008900
F 3.67379200 0.94450700 -0.18747600
F 2.00036300 -0.58579800 1.21794200
F 1.93042800 -0.85456000 -0.94102400
F -0.31120500 0.67828700 1.24574900
F -0.37522900 -1.25974900 0.24809000
H -6.13996500 -0.10218200 -4.71973600
30
energy = -2625.4285696800002
C 0.08503200 0.25359100 0.06551400
C -0.67267800 0.82970600 -1.18222700
C -0.22707000 2.22262400 -1.71359400
C -1.00022400 2.70106200 -3.00102200
C -0.35523000 2.29474000 -4.37651200
F 0.35227000 1.16813200 -4.27070600
F -1.32634800 2.11604100 -5.26092000
S 0.78795600 3.61817100 -5.07301200
O -0.02416900 4.61162300 -5.70419400
O 1.78283500 3.90749200 -4.07470200
O 1.46088300 2.75310500 -6.23488500
F -2.24447400 2.21809200 -2.98080000
F -1.06200000 4.03685000 -2.96035900
F -0.45437100 3.11208800 -0.74569000
F 1.08210600 2.20452400 -1.99250700
F -1.94681800 0.93374900 -0.78569600
F -0.59327800 -0.06379000 -2.17542500
C 1.63245800 -0.01423100 -0.05507100
C 2.52102800 1.07011600 0.63417600
C 4.01329000 1.00333600 0.19742800
F 4.45964300 -0.24302500 0.28220200
F 4.14509000 1.42972500 -1.04879900
F 4.73194200 1.77569700 0.99644500
F 2.46253900 0.86789100 1.95292500
F 2.07139700 2.29918000 0.35922300
F 1.89666300 -1.17283800 0.55216900
F 1.97142000 -0.12951000 -1.34785100
F -0.14396700 1.06285700 1.10689000
F -0.50345800 -0.92313900 0.30174600
H 2.27019800 2.32791100 -5.90244600
30
energy = -2625.4319395900006
C -0.06108900 0.04679400 0.12292300
C -0.79743600 0.81793500 1.24958700
C -2.36395500 0.75624400 1.20215400
C -3.02659300 -0.65550500 1.24866400
C -4.51786200 -0.58287800 1.69985400
F -4.57717600 -0.46199900 3.01945700
F -5.11509000 0.45363100 1.11849500
S -5.48811100 -2.13592500 1.26382000
O -4.62232800 -3.26060600 1.50105600
O -6.77815300 -1.98260600 1.86230500
O -5.67759500 -1.93926600 -0.30681100
F -2.98834500 -1.17863700 0.00715300
F -2.36475400 -1.44540700 2.08827300
F -2.78463200 1.43955800 2.27591500
F -2.77530600 1.37637900 0.09466500
F -0.49658500 2.11934400 1.15245100
F -0.38536100 0.35414600 2.43123400
C 1.50589500 0.05954000 0.14007300
C 2.23899300 1.43957000 -0.02573200
C 2.77022500 2.04246400 1.30959700
F 1.83481700 2.01987900 2.25021000
F 3.81690400 1.34859700 1.72619200
F 3.13646700 3.29643800 1.09816000
F 1.42307100 2.32321900 -0.60981600
F 3.30099000 1.25362500 -0.81306400
F 1.91661900 -0.52061300 1.27553200
F 1.86291900 -0.71233800 -0.89086500
F -0.39788900 -1.24783800 0.24012600
F -0.48160700 0.50081500 -1.06111800
H -4.91799300 -2.32450800 -0.77773700
30
energy = -2625.42531263
C 0.11395800 0.20468000 -0.24756000
C -0.44350700 0.79745600 1.09274400
C -0.17891100 2.29675400 1.40911800
C -1.09229400 2.92801400 2.52025800
C -1.30989300 2.21342300 3.89059800
F -2.16680300 2.97688600 4.57720200
F -1.85101400 1.01514400 3.69899500
S 0.15839500 1.97059700 5.03303300
O -0.38545400 1.37464000 6.22313600
O 1.24197900 1.40784400 4.28763900
O 0.53008400 3.49123000 5.33838800
F -0.57718400 4.13624500 2.77665000
F -2.31522000 3.07921400 1.99971300
F 1.09345700 2.45513000 1.77133700
F -0.41495300 3.02662400 0.31248300
F 0.03654800 0.06097000 2.09999000
F -1.77497100 0.64352000 1.02354400
C 1.64057300 -0.12048700 -0.39725600
C 2.65131700 1.07315400 -0.37005900
C 3.86977900 0.87750600 -1.32048500
F 4.40316800 -0.32142200 -1.12934200
F 3.50570200 1.00454000 -2.58574000
F 4.77689000 1.80185500 -1.04245100
F 3.13064200 1.20605600 0.86615500
F 2.02414000 2.20168700 -0.73366800
F 1.98619000 -0.99589200 0.54567500
F 1.73611700 -0.71521800 -1.59888400
F -0.48856700 -0.98924300 -0.35909800
F -0.26680000 0.97132400 -1.27156400
H 0.05098500 3.79570300 6.12887400
30
energy = -2625.43108002
C -0.33471300 0.91877500 -0.10782700
C -0.39440300 0.95743500 1.46220900
C 0.14679100 -0.29202600 2.24965300
C 1.60647900 -0.12104100 2.78775400
C 2.25192100 -1.49047600 3.14921200
F 1.37359000 -2.26195100 3.77807500
F 2.66887700 -2.09011400 2.03432600
S 3.75133000 -1.27578500 4.26327000
O 4.60458600 -0.30895200 3.62446400
O 3.29810800 -1.17690800 5.61595500
O 4.39046600 -2.72890800 4.08914000
F 2.37579300 0.47546300 1.87301900
F 1.56243700 0.63632300 3.88649800
F -0.63969200 -0.47882400 3.30936200
F 0.08322000 -1.38286100 1.47222000
F -1.70086700 1.05477900 1.73388500
F 0.20951500 2.05520700 1.92637100
C 0.99389800 0.65136700 -0.89060600
C 1.98284000 1.85578400 -0.96719000
C 3.42601700 1.42650400 -1.35853400
F 4.00019900 0.78651900 -0.35223900
F 3.39072700 0.63173900 -2.42072000
F 4.13687400 2.50444200 -1.64742800
F 2.04661700 2.48044300 0.21263600
F 1.53428200 2.70927900 -1.88963100
F 1.61570800 -0.41853000 -0.37406900
F 0.63498600 0.36043800 -2.14486300
F -1.18787800 -0.04007100 -0.48542100
F -0.79781200 2.10680700 -0.52355100
H 5.00590300 -2.73149900 3.33570400
30
energy = -2625.43322138
C 0.05472800 -0.00449400 -0.02266300
C -0.48589500 -1.47739000 -0.03421100
C -0.09780100 -2.39778700 1.15743600
C -1.00793000 -3.66139200 1.33988700
C -1.15820900 -4.55769700 0.07868500
F -1.98988300 -3.98201900 -0.78193800
F 0.02572900 -4.75396600 -0.50029900
S -1.85056600 -6.25151300 0.51241900
O -0.77782000 -7.05849500 1.02928700
O -3.09052900 -6.03740400 1.19458000
O -2.18480800 -6.75142200 -0.96860400
F -0.43947200 -4.39819500 2.30338200
F -2.21664700 -3.27385700 1.73797100
F 1.15685800 -2.82285900 0.98362300
F -0.18126900 -1.70049600 2.29562500
F -0.07366800 -2.07160600 -1.16056700
F -1.82026900 -1.36165300 -0.06430300
C 1.59494300 0.16927400 0.08198800
C 2.08472800 1.66775800 0.08961500
C 2.37569700 2.24126600 1.50820300
F 1.34676300 2.03174700 2.31655000
F 3.45857500 1.67771200 2.01918500
F 2.58066400 3.54562100 1.40184400
F 1.17258900 2.45616200 -0.48943100
F 3.22063100 1.73346900 -0.60810600
F 2.01901700 -0.41363400 1.21502600
F 2.14772900 -0.45404500 -0.96042100
F -0.34979000 0.51705200 -1.18689300
F -0.52480200 0.65122300 0.98609100
H -1.47965000 -7.34929800 -1.27181800
30
energy = -2625.4311396700004
C 0.18348300 0.15271300 -0.05894900
C -0.61207800 0.58881900 -1.33691900
C -0.33398000 2.00615900 -1.90243500
C -1.18360000 2.40384000 -3.15857400
C -2.73361700 2.39785100 -2.99661000
F -3.18720000 1.16647200 -3.17976600
F -3.07773500 2.84381000 -1.79181500
S -3.61716000 3.52431100 -4.23151900
O -4.89612300 2.92864200 -4.46894800
O -3.43497900 4.87855800 -3.78380200
O -2.73728900 3.28866500 -5.54341500
F -0.79734500 3.65505700 -3.47356500
F -0.85949400 1.58960100 -4.16251900
F -0.54331500 2.90727900 -0.94141200
F 0.94266900 2.06986600 -2.30401400
F -1.90425600 0.55148500 -0.97555700
F -0.40197700 -0.31236100 -2.29959000
C 1.75250800 0.04987600 -0.16256700
C 2.50588100 1.26907500 0.45187900
C 4.00702400 1.33147000 0.04579400
F 4.58037900 0.15063800 0.23334800
F 4.12330700 1.67667600 -1.22671000
F 4.61877800 2.23454400 0.79566500
F 2.43632400 1.17231200 1.78127400
F 1.92922800 2.41262600 0.06209600
F 2.13729500 -1.03185200 0.51678300
F 2.11232800 -0.10167800 -1.44504100
F -0.14130300 0.97951200 0.94247800
F -0.27707000 -1.06866400 0.22607700
H -2.05383600 3.97885800 -5.60600100
30
energy = -2625.43640493
C 0.02477800 -0.04854900 0.04008600
C -0.46318800 -1.53581400 0.10338900
C -0.02471400 -2.37408400 1.34511600
C -0.96802400 -3.59474800 1.59567700
C -0.30371800 -4.66122800 2.51737200
F 0.54502800 -5.40141000 1.80481300
F 0.34074400 -4.07003700 3.51640500
S -1.58024300 -5.83170600 3.24932700
O -2.14133100 -5.21973900 4.41372300
O -2.35625200 -6.33569600 2.14700800
O -0.59160600 -6.97925500 3.75595200
F -2.08900800 -3.16641300 2.18161700
F -1.25782100 -4.17058000 0.42754000
F 1.21002200 -2.84667200 1.12932600
F -0.02836000 -1.60346500 2.43464700
F -0.03917000 -2.15965700 -0.99741000
F -1.80240400 -1.47581600 0.09296500
C 1.55975800 0.16281700 0.05570200
C 2.04613600 1.64751200 0.05005100
C 1.55336200 2.54798500 -1.11797500
F 1.62918500 1.89575300 -2.26934800
F 0.30146400 2.92603200 -0.90664200
F 2.31900400 3.62612300 -1.18021400
F 3.38148200 1.59626400 -0.01365700
F 1.68046800 2.21974700 1.20016000
F 2.04867700 -0.37680900 1.18202300
F 2.08722300 -0.46483800 -0.99902300
F -0.44497700 0.42965400 -1.12161500
F -0.52130300 0.63304800 1.04962400
H -0.45672700 -7.63480700 3.04991600
30
energy = -2625.4306177
C -0.07290500 0.33323000 -0.13714100
C -0.58470200 0.76582700 1.26040500
C -2.13702400 0.65072800 1.49019800
C -3.16505600 1.09887800 0.39599900
C -3.18692200 2.60538000 -0.03557400
F -1.98517600 3.16532100 0.12586300
F -3.53645300 2.67769100 -1.31174700
S -4.41259100 3.64963100 0.93373600
O -5.72474600 3.36961700 0.43996900
O -4.03804000 3.57944400 2.32102000
O -3.98708900 5.07859200 0.35973300
F -2.96759300 0.35861200 -0.69639000
F -4.37493100 0.80406200 0.89334900
F -2.39779200 -0.64562800 1.69379400
F -2.39980300 1.33533200 2.60585800
F -0.19940200 2.02418200 1.49049800
F -0.01945000 -0.02705200 2.17949900
C 1.47580200 0.14944200 -0.27594100
C 2.35055700 1.35906400 0.15845700
C 3.81031100 1.29445800 -0.38010500
F 4.33180800 0.09813400 -0.14558100
F 3.83320100 1.53484700 -1.68070600
F 4.53585700 2.21215400 0.24037200
F 2.40471800 1.38412900 1.49398300
F 1.79731300 2.49254500 -0.28907500
F 1.83866200 -0.91851000 0.43615400
F 1.70266500 -0.09104600 -1.57568200
F -0.61301700 -0.85434100 -0.43574400
F -0.47436000 1.24390200 -1.03441100
H -3.31599000 5.47854900 0.93937700
30
energy = -2625.4274529700006
C 0.49586500 -0.31884600 -0.32160500
C -0.22182900 0.70160700 -1.29049700
C -0.59030200 0.12974000 -2.69855700
C 0.62659600 -0.05526900 -3.68213600
C 0.76263900 0.98367400 -4.84299100
F 1.80216900 0.59293200 -5.57638900
F -0.33647300 0.96879200 -5.59670900
S 1.10384300 2.76829800 -4.36784400
O -0.09257100 3.33167400 -3.80172900
O 2.38396200 2.80449400 -3.72971200
O 1.28262500 3.35015400 -5.84508700
F 1.77756200 -0.04391600 -3.00002200
F 0.49112900 -1.23929900 -4.28512900
F -1.20195000 -1.04417700 -2.52711900
F -1.46515700 0.97777400 -3.25139000
F 0.55432900 1.78384100 -1.46968700
F -1.36714200 1.08390900 -0.72968900
C 1.79027700 0.21126900 0.37607400
C 1.53895800 1.38429400 1.39577000
C 2.55812400 2.55022700 1.26751500
F 2.37997300 3.17582000 0.11703500
F 2.36938000 3.40651200 2.26096500
F 3.79674500 2.08201200 1.33895100
F 1.60399900 0.90448800 2.63705600
F 0.31267800 1.89458500 1.19673300
F 2.31144500 -0.82124900 1.04313900
F 2.66140000 0.58770400 -0.56651200
F -0.35933400 -0.69438600 0.63192500
F 0.86358500 -1.40852900 -1.01309300
H 0.44474700 3.74822400 -6.13850500
30
energy = -2625.42680031
C 0.32319300 -0.18859200 -0.32764100
C -0.71470100 0.17937900 -1.43306100
C -2.22114700 0.03050200 -1.01820800
C -2.80538000 1.14066000 -0.05230500
C -3.31992800 0.61911300 1.32534000
F -2.43084200 -0.17908100 1.89992200
F -3.52135800 1.67878100 2.11294100
S -4.96113300 -0.30405200 1.24193900
O -5.07614300 -0.92243800 -0.04449900
O -5.07269900 -1.01391000 2.48769000
O -5.97481700 0.92725000 1.24966200
F -1.87209300 2.06244200 0.21490100
F -3.82792900 1.74960700 -0.65590100
F -2.91868700 0.07207100 -2.15100900
F -2.36605500 -1.18008700 -0.46177000
F -0.52553800 -0.67141800 -2.44595800
F -0.50282400 1.42677000 -1.87198100
C 1.81224500 0.18301300 -0.70055700
C 2.42615500 1.47574700 -0.07432300
C 1.77485900 2.83519500 -0.43816700
F 1.71294700 2.97999700 -1.75293600
F 0.55343400 2.91541500 0.07102200
F 2.51328900 3.80956000 0.07049100
F 3.69238100 1.52470800 -0.50711200
F 2.42311100 1.35079700 1.25617500
F 2.58630200 -0.81519400 -0.26435100
F 1.92866300 0.26609200 -2.03228400
F -0.01569100 0.40078800 0.82926000
F 0.26943600 -1.51008800 -0.15894100
H -6.19557900 1.17121600 2.16525100
30
energy = -2625.43201752
C 0.52498400 -0.04890000 -0.20790600
C -0.23799200 0.61190500 -1.41576900
C -0.34129600 -0.20167100 -2.75366700
C 0.99092200 -0.57595900 -3.46481700
C 0.77469000 -1.41008800 -4.76370000
F 0.38281800 -2.63612800 -4.44242700
F -0.13629000 -0.83996800 -5.55241400
S 2.34156400 -1.60065100 -5.79170200
O 3.45685000 -1.71416400 -4.90216600
O 2.02359800 -2.57104500 -6.80476000
O 2.41129200 -0.15760200 -6.47012100
F 1.63730900 0.55072800 -3.77714200
F 1.73324800 -1.31853000 -2.63912700
F -1.02988400 -1.32433200 -2.52467500
F -1.04413100 0.58004700 -3.58414300
F 0.29158400 1.80730200 -1.69804800
F -1.50594800 0.78668700 -1.02817400
C 2.02810500 0.38310400 -0.03059500
C 2.21416000 1.61473000 0.90834800
C 3.62103400 2.27165200 0.78541300
F 4.56475400 1.34113300 0.83536200
F 3.72287700 2.93763400 -0.35324700
F 3.79112100 3.11404400 1.79309900
F 2.05588200 1.21401000 2.17164500
F 1.29897500 2.54774100 0.61898400
F 2.68488700 -0.64521000 0.50635600
F 2.57039100 0.66829600 -1.22400000
F -0.12637600 0.27557200 0.91576200
F 0.47732400 -1.37747700 -0.34375200
H 1.97285000 -0.18324200 -7.33838700
30
energy = -2625.4210169499997
C 0.44569300 0.11654200 -0.37893500
C -0.50009700 0.48482000 -1.56738300
C -2.05516800 0.48483000 -1.33144200
C -2.87226700 -0.85289900 -1.37417400
C -2.60130900 -1.90958200 -0.24467600
F -1.92074600 -1.35607300 0.75592800
F -3.76626100 -2.35206400 0.22811600
S -1.68070800 -3.46211500 -0.79630600
O -0.66978400 -3.12729500 -1.75074900
O -1.42684400 -4.19652000 0.41397200
O -2.86486600 -4.17198100 -1.59864000
F -4.14858900 -0.47044300 -1.24642600
F -2.71827700 -1.42206600 -2.57113800
F -2.34743100 1.11633300 -0.19147900
F -2.55404600 1.19424300 -2.35437100
F -0.23798400 -0.33663500 -2.58495700
F -0.20522800 1.74543000 -1.92470600
C 1.95125800 0.53834200 -0.62271600
C 2.46524500 1.83737200 0.08029700
C 1.80463100 3.19105300 -0.29197400
F 1.86597500 3.38831600 -1.60002200
F 0.53885300 3.22358700 0.10171400
F 2.46387800 4.16234700 0.32182500
F 3.75916800 1.93951800 -0.25114200
F 2.36527000 1.67464700 1.40296500
F 2.71294600 -0.44181100 -0.12785600
F 2.18853700 0.64315500 -1.93533300
F 0.00968800 0.67977600 0.75350000
F 0.42797800 -1.20976300 -0.23410600
H -3.37706100 -4.73983900 -0.99696200
30
energy = -2625.4317584699997
C -0.07458700 0.11598200 -0.18659700
C -0.70319300 -1.26947100 0.19653700
C -0.15380100 -2.49875900 -0.58539200
C -1.00571300 -3.81060900 -0.38412300
C -0.18473300 -5.11312600 -0.09901500
F 0.40148700 -5.00609700 1.08908400
F -1.05329000 -6.11656000 -0.07960400
S 1.11085500 -5.56533700 -1.40067900
O 1.11650900 -6.99172500 -1.49949200
O 0.89101900 -4.68426900 -2.51876600
O 2.46031600 -5.15228900 -0.66583700
F -1.80129300 -3.66402400 0.68667600
F -1.75920400 -4.00456100 -1.46046300
F -0.10739700 -2.18840900 -1.87423700
F 1.10681500 -2.74026800 -0.14456500
F -2.00966200 -1.16214700 -0.07594000
F -0.52786300 -1.46571200 1.50359400
C 1.47491400 0.20099300 -0.12724000
C 2.07798500 1.64166700 -0.11219600
C 1.62125100 2.58917200 -1.25488900
F 1.71800200 1.97547500 -2.42548700
F 0.36542900 2.96560100 -1.05975400
F 2.39547100 3.66190500 -1.26052000
F 3.40374000 1.49118900 -0.21349700
F 1.78876900 2.21910000 1.05566600
F 1.89781800 -0.39921600 0.99372500
F 1.97223600 -0.44868300 -1.18738000
F -0.46577200 0.42959200 -1.42527300
F -0.58548300 1.00338100 0.67569700
H 2.61386500 -4.19682400 -0.77128600
30
energy = -2625.43238391
C 1.37903500 0.56984500 -0.12161300
C -0.00527600 1.28257600 -0.31212900
C -0.07453900 2.80158500 0.03931300
C -1.29165600 3.55436700 -0.61515800
C -0.96329800 4.22329100 -1.98639700
F -0.32957600 5.36438700 -1.76133600
F -0.20645600 3.42693700 -2.73559200
S -2.49920000 4.59186900 -3.02268100
O -2.19434300 5.75653100 -3.79563000
O -2.93505700 3.34418500 -3.58926700
O -3.53589300 5.03642100 -1.89222100
F -2.31859400 2.69625500 -0.76505900
F -1.67026000 4.51893800 0.22181700
F -0.20984500 2.90710900 1.36273600
F 1.05281100 3.41777700 -0.33954500
F -0.90817200 0.64783700 0.44069400
F -0.31759500 1.11828200 -1.60334300
C 1.98784600 0.63504900 1.30727000
C 3.37249200 -0.07336000 1.43599100
C 3.81848900 -0.28317800 2.91453900
F 3.67659500 0.84124200 3.60319600
F 3.09549800 -1.23581500 3.48119600
F 5.09262400 -0.64191500 2.92999100
F 4.28801400 0.68589300 0.82858700
F 3.33224400 -1.27359400 0.84969000
F 2.16606500 1.92175500 1.63371200
F 1.12367000 0.07391000 2.16166400
F 1.15984000 -0.71156400 -0.43573800
F 2.25609100 1.09302700 -0.98357700
H -4.05527300 4.26483200 -1.60505000
30
energy = -2625.4314602300005
C 0.05058300 0.16100600 0.00123400
C -0.63362800 -1.24963800 -0.01803300
C -0.21329700 -2.33404100 -1.06651700
C -0.52651800 -2.02228000 -2.55842200
C 0.04574700 -3.08930900 -3.56323500
F 0.19897400 -4.26627000 -2.96241800
F -0.80769700 -3.21470300 -4.57144800
S 1.71879600 -2.65114400 -4.30538300
O 2.56447600 -2.16042000 -3.25022700
O 2.06306600 -3.74896600 -5.15531000
O 1.30630200 -1.43497400 -5.25078800
F -1.84858500 -1.97422800 -2.70597600
F -0.01776600 -0.81812000 -2.88971000
F 1.08901800 -2.59206400 -0.92896900
F -0.91588600 -3.42737700 -0.74514100
F -1.94444200 -1.02425400 -0.17625600
F -0.42554300 -1.80568900 1.17904200
C 1.60643500 0.16930100 -0.02753000
C 2.21321100 1.54073400 0.40274400
C 3.70579500 1.70927500 -0.00839500
F 4.40050700 0.63653700 0.34260800
F 3.80476800 1.88701700 -1.31669700
F 4.20364700 2.76979000 0.60829600
F 2.13397900 1.64324500 1.73053700
F 1.51675400 2.53405400 -0.16379700
F 2.06335300 -0.76753700 0.80796300
F 2.00430900 -0.10933900 -1.27662100
F -0.41104300 0.87740800 -1.02673200
F -0.34808900 0.73971700 1.14267700
H 1.39750300 -0.59983900 -4.75995900
30
energy = -2625.42317331
C 0.22769400 -0.00688000 -0.34347400
C -0.59057400 -1.32036100 -0.09269300
C -2.15028500 -1.10646800 -0.07162500
C -2.91336300 -0.83551400 1.27812300
C -2.81203000 0.55006000 2.00971600
F -2.64974100 1.53936300 1.14205000
F -3.95421700 0.73502900 2.66623300
S -1.46307100 0.68747000 3.32064100
O -0.27595600 0.02163900 2.85124900
O -1.48828500 2.04916800 3.75772000
O -2.11323400 -0.19783500 4.47534400
F -4.20393000 -0.97388700 0.95491900
F -2.59383800 -1.79981000 2.16234000
F -2.47257900 -0.13731900 -0.93589800
F -2.67391000 -2.26214200 -0.50189500
F -0.22042700 -1.94897300 1.02415200
F -0.32541300 -2.12498600 -1.12760800
C 1.74722100 -0.13551600 -0.01696200
C 2.55181800 1.20647600 -0.18947300
C 2.76946100 1.99285100 1.13738600
F 1.62644700 2.12924800 1.79103600
F 3.64469100 1.36344900 1.90513300
F 3.24496900 3.19478400 0.84329500
F 1.91928600 2.01505000 -1.04815100
F 3.75559400 0.90659900 -0.68277900
F 1.92279200 -0.56898100 1.23514000
F 2.24506600 -1.04437300 -0.86237500
F 0.10721000 0.27063700 -1.64582600
F -0.29823100 1.00508600 0.35776000
H -1.79873000 -1.11514400 4.39513600
30
energy = -2625.4250208999997
C 0.33348800 0.00286900 0.15947600
C -0.32413600 0.55126100 -1.14559100
C -0.05503000 -0.17009700 -2.51091400
C -0.57868700 -1.65284500 -2.66168300
C 0.50525400 -2.78126400 -2.57518500
F 1.45012900 -2.47950000 -1.69214300
F -0.10034500 -3.90383800 -2.20530600
S 1.37921700 -3.12893200 -4.20798500
O 1.58656000 -1.87420200 -4.88153500
O 2.42957100 -4.04961500 -3.89915500
O 0.24692600 -3.94711300 -4.97562800
F -1.50846500 -1.90175100 -1.73776200
F -1.16653900 -1.76528400 -3.86843300
F -0.70875100 0.56602800 -3.41496900
F 1.25204300 -0.11157000 -2.77573900
F 0.07857900 1.81720100 -1.31286300
F -1.64562800 0.55016900 -0.94416600
C 1.86119000 0.21227700 0.41521300
C 2.45881400 1.65205800 0.54371000
C 1.74053200 2.63188600 1.51259600
F 0.59737700 3.05063300 0.98926100
F 1.50030700 2.03713200 2.67215900
F 2.52401500 3.67899500 1.71666700
F 2.52532800 2.21860500 -0.66277200
F 3.70297600 1.47967300 1.00711600
F 2.10397600 -0.41250500 1.57440500
F 2.54663400 -0.39668600 -0.55754800
F -0.31646800 0.56848300 1.18411900
F 0.12549400 -1.32224200 0.20368400
H -0.31159500 -3.33100300 -5.48085400
30
energy = -2625.4333411300004
C 0.10362900 -0.12914500 0.05117900
C -0.66881600 0.57544000 1.21638500
C -0.38197100 0.05650800 2.65547400
C -1.05638500 0.93177100 3.76317700
C -1.14960000 0.17797300 5.12628700
F -2.19788800 -0.62972000 5.10681500
F -0.03616600 -0.52183200 5.33345800
S -1.31960800 1.33499300 6.61066500
O -2.10064800 0.63411300 7.58303100
O -0.01565600 1.88218100 6.87123300
O -2.24911300 2.48054300 5.99860400
F -0.32477300 2.04630400 3.92781400
F -2.28813400 1.27546700 3.38541800
F -0.84598000 -1.19309300 2.75799400
F 0.93501100 0.06629400 2.87554600
F -1.96406700 0.36739800 0.95866900
F -0.42146000 1.89197700 1.17770000
C 1.66103600 -0.01363700 -0.07859600
C 2.24917700 1.42091600 0.01280500
C 3.71283800 1.52459000 -0.50891700
F 4.45318200 0.55845400 0.01706900
F 3.74153500 1.42949200 -1.82765200
F 4.21256200 2.69727800 -0.15038600
F 2.24130500 1.80497100 1.29398600
F 1.49208700 2.25450900 -0.70922000
F 2.24035400 -0.78235900 0.84431800
F 1.95417300 -0.50659900 -1.29171000
F -0.17055600 -1.43755000 0.12803800
F -0.41872000 0.36604700 -1.07570800
H -1.69288900 3.19665200 5.64430400
30
energy = -2625.4263469600005
C 0.09776100 -0.30870200 -0.06957700
C -0.73944600 0.28814900 -1.24311100
C -2.27106000 0.45837800 -0.95249800
C -2.77784700 1.60794500 0.00929300
C -2.04966700 2.98608900 0.11662400
F -2.70188600 3.68784300 1.03330400
F -0.79528100 2.79597800 0.52322500
S -2.03940900 4.03732300 -1.46323900
O -2.32755000 3.15610900 -2.56336700
O -2.78158700 5.22779000 -1.18818500
O -0.50323600 4.45512500 -1.51153900
F -4.04281900 1.86298000 -0.33896600
F -2.76109900 1.11580600 1.25423300
F -2.86272000 0.60274100 -2.13318900
F -2.69599300 -0.69141400 -0.40727200
F -0.63949500 -0.55025100 -2.27309300
F -0.22065000 1.47948300 -1.61353100
C 1.65883300 -0.24675700 -0.28585600
C 2.35047500 0.98912000 0.36065400
C 3.82260400 1.19068000 -0.10660300
F 4.49895900 0.05677900 0.00122700
F 3.85002300 1.59880200 -1.36651600
F 4.39088700 2.11038800 0.65634000
F 2.35082900 0.83038800 1.68456200
F 1.67253700 2.10211000 0.04562900
F 2.18811900 -1.33858300 0.26623300
F 1.92335900 -0.25361600 -1.60155400
F -0.21344800 0.33001400 1.06768700
F -0.23943300 -1.59193300 0.04925700
H 0.02972000 3.72819200 -1.87962100
30
energy = -2625.430713460001
C -0.02105800 0.02260400 0.16662300
C -0.64704400 0.66704200 1.43348600
C -2.21205000 0.77273800 1.44740000
C -2.99974200 -0.54166400 1.19115600
C -4.50556500 -0.53458400 1.61804800
F -5.02969800 -1.67231400 1.17589200
F -4.57689500 -0.49067700 2.94504200
S -5.58854700 0.86634300 0.98628300
O -6.93305900 0.38057800 1.02124600
O -5.15243400 2.06326700 1.65357900
O -5.15083700 0.92693500 -0.54513400
F -2.93557500 -0.81814300 -0.11604800
F -2.42333200 -1.52816100 1.88656100
F -2.54244200 1.25368000 2.64459300
F -2.56794300 1.66371700 0.49798700
F -0.20640000 1.92740400 1.53794000
F -0.26083400 -0.02544500 2.50446500
C 1.53719000 0.08429400 0.04872600
C 2.27877400 1.45085400 -0.12244700
C 1.73074400 2.41311100 -1.21161700
F 1.52049400 1.75243800 -2.34158500
F 0.59387000 2.96578100 -0.81067400
F 2.61796500 3.37019100 -1.42630500
F 3.53471800 1.13781200 -0.46341700
F 2.29953400 2.09706200 1.04478800
F 2.04559800 -0.48991000 1.14544700
F 1.84005300 -0.65973800 -1.02104200
F -0.32630600 -1.28074400 0.18431400
F -0.56032200 0.58103400 -0.92587900
H -4.39751800 1.53639800 -0.64679100
30
energy = -2625.4302296100004
C 0.12885400 -0.14367100 -0.19777000
C -0.68672800 0.68017900 -1.22968700
C -2.23898700 0.77227100 -1.00271100
C -2.99478800 -0.57244300 -0.80921500
C -4.54514700 -0.42306500 -0.68582200
F -4.83554400 0.00687700 0.53259400
F -5.02384400 0.42466800 -1.59006700
S -5.46693300 -2.04908300 -0.98414200
O -6.63382400 -2.00663300 -0.15732800
O -5.49787400 -2.25531000 -2.40704700
O -4.46719200 -3.10893400 -0.33095500
F -2.71019700 -1.38160800 -1.84413400
F -2.56516400 -1.13708100 0.32303200
F -2.47640500 1.52783600 0.07298700
F -2.70953300 1.38880600 -2.09125900
F -0.47362700 0.16091800 -2.44034700
F -0.25508700 1.94781500 -1.21022600
C 1.68658900 -0.01710800 -0.27956500
C 2.41350700 1.33050100 0.04410600
C 1.98023000 2.05942700 1.34417300
F 0.78003600 2.60145600 1.19038000
F 1.94861200 1.20408300 2.35634400
F 2.85115600 3.01830900 1.61242400
F 2.27904400 2.17262100 -0.98168700
F 3.70887500 1.01779600 0.17462100
F 2.15705000 -0.92589600 0.58281000
F 2.04945500 -0.35701100 -1.52267000
F -0.26891000 0.16759900 1.04129600
F -0.12762500 -1.43927100 -0.43079100
H -3.85865900 -3.44637700 -1.01211100
30
energy = -2625.4325384599997
C 0.01587300 0.13160500 -0.15490500
C -0.65919100 -1.28317500 -0.15941200
C -0.25168000 -2.37481600 -1.20473600
C -0.58075700 -2.07123000 -2.69485300
C 0.01153600 -3.13796500 -3.67079100
F 1.29173500 -2.87010400 -3.87550900
F -0.12099100 -4.36079600 -3.16455600
S -0.86296500 -3.17724800 -5.34546100
O 0.12103300 -3.57533500 -6.30473600
O -2.11600800 -3.85572400 -5.15196900
O -1.14807700 -1.62288400 -5.57763200
F -1.91481000 -2.02940400 -2.84132100
F -0.06953500 -0.88516900 -3.03022000
F 1.06118500 -2.61749200 -1.10570300
F -0.92970200 -3.47099400 -0.85240100
F -1.97312600 -1.06577300 -0.30867100
F -0.43727400 -1.82856900 1.03963100
C 1.56818300 0.15442200 -0.19970800
C 2.24009900 1.49997200 0.22511300
C 1.74961400 2.77651700 -0.51043400
F 1.74156100 2.57661300 -1.82087400
F 0.52649400 3.09464900 -0.10932500
F 2.56689100 3.77785000 -0.22844000
F 3.54561300 1.36092500 -0.03160400
F 2.06703400 1.67797100 1.53646600
F 2.03342500 -0.78131300 0.63751600
F 1.96085700 -0.13036600 -1.44581900
F -0.45478200 0.84013700 -1.18654500
F -0.38341500 0.71370800 0.98399800
H -2.04401100 -1.40620500 -5.26465100
30
energy = -2625.4365120700004
C 0.02116700 0.05285300 -0.04332400
C -0.68691900 -1.31674600 0.15422400
C -2.25418700 -1.28383700 0.15950000
C -2.96943400 -0.73281300 -1.11577700
C -4.42716000 -1.27072600 -1.23802500
F -4.41012000 -2.51503900 -1.71423200
F -5.02802800 -1.24440200 -0.05441500
S -5.44318100 -0.23574200 -2.43608200
O -5.95082500 0.90326800 -1.73601700
O -4.68860200 -0.16190100 -3.65931800
O -6.66753800 -1.24070700 -2.64150900
F -3.02996200 0.60039800 -1.03726300
F -2.29354200 -1.09427000 -2.20643100
F -2.63763100 -2.55979100 0.32538800
F -2.65243600 -0.56359300 1.20910800
F -0.33950300 -1.80592600 1.34956200
F -0.27419900 -2.15470000 -0.80258800
C 1.57439600 -0.06720300 -0.17701200
C 2.29030300 1.29718300 0.06306100
C 3.74958100 1.32760800 -0.47786400
F 4.40515600 0.24670200 -0.07467900
F 3.75054700 1.37131000 -1.80008000
F 4.36168900 2.40425300 -0.01019300
F 2.32757000 1.53231100 1.37645200
F 1.60193300 2.27025000 -0.54541500
F 2.03995700 -0.94872700 0.71281600
F 1.85689600 -0.49689700 -1.41205800
F -0.44043000 0.61406300 -1.16707200
F -0.27089000 0.83621300 1.00078100
H -6.48075800 -1.84157600 -3.38341900
30
energy = -2625.43196408
C 0.05182400 0.04187900 -0.19886000
C -0.77036100 0.42485800 -1.47277600
C -2.29971600 0.60394100 -1.21455300
C -3.08450900 1.08863800 -2.48152700
C -4.61778300 0.85440100 -2.33655100
F -4.89354300 -0.43005100 -2.51998000
F -5.03137200 1.23717000 -1.12664700
S -5.64216400 1.80025600 -3.59927300
O -4.92962400 1.79903300 -4.84057900
O -6.98946900 1.31846400 -3.44955500
O -5.55887500 3.27386400 -2.99159600
F -2.85878100 2.39632700 -2.63516200
F -2.66759500 0.43026500 -3.56187100
F -2.79871900 -0.57296300 -0.81559400
F -2.49005200 1.51501400 -0.25660300
F -0.60815500 -0.56269800 -2.35672500
F -0.29938100 1.57105700 -1.98354500
C 1.61454700 0.09406800 -0.42256000
C 2.37994400 1.33537200 0.14012100
C 2.02266300 2.72852900 -0.44371500
F 2.14236200 2.71545200 -1.76259600
F 0.78371600 3.07247400 -0.11888300
F 2.85819500 3.62442400 0.05839500
F 3.67283400 1.12184100 -0.13662700
F 2.21906500 1.37830700 1.46565500
F 2.13855900 -0.96053300 0.20857600
F 1.88845400 -0.00560300 -1.72962100
F -0.27021200 0.83837600 0.82694800
F -0.28320100 -1.21134700 0.11545500
H -6.34116800 3.44191900 -2.43794200
30
energy = -2625.42527886
C -0.17951900 0.23010400 0.14039500
C -0.85591000 0.59766900 -1.22308400
C -0.44582900 -0.27591100 -2.46948800
C -1.46563800 -1.37794000 -2.92622300
C -1.73957600 -2.55553900 -1.94814400
F -0.59124100 -3.04195200 -1.48836500
F -2.50157400 -2.15152700 -0.93992500
S -2.66268800 -3.98271400 -2.76852800
O -2.97720000 -4.89697300 -1.71410100
O -3.64159800 -3.42309600 -3.66198000
O -1.49121400 -4.64475500 -3.62313400
F -2.61199000 -0.79038600 -3.25111300
F -0.92229600 -1.91969900 -4.03909000
F -0.33041900 0.54616500 -3.51589400
F 0.73535000 -0.86344700 -2.25365900
F -0.62806300 1.88228300 -1.49678300
F -2.17248600 0.44662900 -1.02024100
C 1.33576700 0.50945300 0.45577200
C 1.87620900 1.96006800 0.22042800
C 2.55170700 2.16471500 -1.17045300
F 1.83385600 1.59442200 -2.13665500
F 2.65283600 3.45830500 -1.42195000
F 3.75799100 1.62460400 -1.16657600
F 2.80811200 2.20713400 1.14395200
F 0.88396600 2.84341300 0.36475200
F 1.44886900 0.25048500 1.76343600
F 2.11877200 -0.34802200 -0.20686900
F -0.87450900 0.88972500 1.07285300
F -0.35652800 -1.08985800 0.31201600
H -1.44347000 -4.21890700 -4.49684200
30
energy = -2625.4274153200004
C 0.37861200 -0.07320100 0.33870800
C -0.05424200 -1.57800600 0.44961600
C 0.17396800 -2.30591700 1.82550900
C 1.42335800 -3.23916800 1.94378500
C 1.53175700 -4.54929000 1.07994300
F 2.04903200 -4.27027500 -0.11493400
F 2.35876400 -5.36919800 1.72233700
S -0.05318400 -5.49909500 0.77050900
O -0.51287900 -6.01604700 2.02247100
O -0.85674000 -4.70709500 -0.12400600
O 0.56965800 -6.71761500 -0.05101700
F 2.51675100 -2.51530600 1.67106700
F 1.45739600 -3.62271700 3.22136700
F 0.30852900 -1.38591800 2.78923000
F -0.90272900 -3.04508900 2.10411600
F 0.55902200 -2.26342300 -0.52277400
F -1.36701100 -1.57339000 0.21436500
C 1.88489700 0.26266100 0.51918400
C 2.31772000 1.68739300 0.03743300
C 1.50187900 2.88805100 0.58953200
F 0.30733000 2.93203700 0.01712500
F 1.35589800 2.78026000 1.90259600
F 2.14845200 4.01017900 0.31553100
F 2.27172200 1.72824400 -1.29600600
F 3.58559200 1.84239900 0.43703300
F 2.20943300 0.14770600 1.80959600
F 2.60930900 -0.60480200 -0.20061300
F 0.02661400 0.30556700 -0.89865500
F -0.32645800 0.63386000 1.22845100
H 0.52144600 -6.52619500 -1.00385300
30
energy = -2625.4311838599997
C 0.12368700 0.28809400 -0.01509200
C -0.65874000 0.69965200 -1.31072600
C -0.44099400 2.13643400 -1.85049500
C -1.21152600 2.48655400 -3.17033200
C -2.75796700 2.31925700 -3.13776600
F -3.07178600 1.04333400 -3.32617900
F -3.25885100 2.74723500 -1.98013600
S -3.58184900 3.32194600 -4.50013300
O -3.66264700 4.69141500 -4.06765000
O -2.99867400 2.90691300 -5.73981600
O -5.04334300 2.68101700 -4.40686300
F -0.94029200 3.77465800 -3.42062300
F -0.72952900 1.73282200 -4.15567500
F -0.79571300 3.00933900 -0.90515700
F 0.85732900 2.29560900 -2.14287300
F -1.95767500 0.58920900 -0.98628400
F -0.37592500 -0.17676700 -2.27704400
C 1.69633400 0.30632000 -0.06641300
C 2.38364900 1.60741500 0.48360800
C 2.74705300 1.53885800 1.99794700
F 1.71940000 1.09035600 2.70649100
F 3.78611800 0.74169700 2.18408200
F 3.05877900 2.75591700 2.41645100
F 1.59005000 2.66932100 0.29866400
F 3.51787900 1.79215500 -0.19405000
F 2.13730600 -0.72303800 0.66918700
F 2.09008000 0.11351500 -1.32844500
F -0.31027400 1.04691000 0.99723900
F -0.24399100 -0.97773200 0.21194100
H -5.62387700 3.27979900 -3.90578900
30
energy = -2625.4277672000003
C 0.34567500 0.06462200 0.10308100
C -0.25361000 -1.38938500 0.26893400
C -1.81130100 -1.50512400 0.15200300
C -2.61341100 -0.75587500 1.27798800
C -3.34692100 -1.63220000 2.34542100
F -3.97672800 -0.77258600 3.15283700
F -4.24108700 -2.40501200 1.73924800
S -2.35869700 -2.74087000 3.49907500
O -3.28870900 -3.13693800 4.52168500
O -1.58832900 -3.66855800 2.73076800
O -1.34501000 -1.66938200 4.10999200
F -1.79347200 0.08478600 1.92599100
F -3.58070100 -0.04198000 0.69648500
F -2.18277500 -1.03367300 -1.03835500
F -2.10730500 -2.80859200 0.19397600
F 0.11783100 -1.86633800 1.45711800
F 0.23129100 -2.18237000 -0.69484300
C 1.58754000 0.11725300 -0.83271100
C 2.40110700 1.45288700 -0.79445900
C 1.59830700 2.76382600 -1.01441800
F 0.79496800 2.64291900 -2.06190900
F 0.87618300 3.04262500 0.06231400
F 2.44444200 3.75858900 -1.22983100
F 3.30935800 1.36458800 -1.77292900
F 3.02909700 1.54286600 0.38063500
F 2.44132600 -0.84388700 -0.45658100
F 1.19116800 -0.09495800 -2.08963100
F -0.59395500 0.87863000 -0.40527800
F 0.71612500 0.52457100 1.29988200
H -1.71523500 -1.29662300 4.92924700
30
energy = -2625.4313161200007
C 0.18362000 -0.07048800 0.26558100
C -0.70975800 0.53426300 -0.86268500
C -0.60886100 -0.00501400 -2.32163100
C -0.91979600 -1.51318800 -2.58840500
C -2.32287000 -2.02619800 -2.14680600
F -2.31868700 -2.27382100 -0.84255700
F -3.25756400 -1.12834200 -2.43778400
S -2.79204600 -3.64682200 -2.98562800
O -1.60585400 -4.45947100 -3.03649200
O -4.02002000 -4.06517800 -2.38341800
O -3.14672900 -3.13612200 -4.45313200
F -0.83443500 -1.65817300 -3.92916300
F 0.01824700 -2.25952400 -2.01506600
F -1.47053300 0.71972700 -3.04365900
F 0.62696400 0.21932400 -2.77939800
F -0.46099100 1.84577500 -0.92975900
F -1.97811000 0.35444000 -0.46462000
C 1.73554300 -0.08398000 0.12297900
C 2.49856700 1.26188700 -0.06989500
C 2.30784200 2.35531000 1.02124100
F 1.11523300 2.91983500 0.91005600
F 2.43414700 1.83436500 2.23213800
F 3.23624800 3.28382900 0.85004200
F 2.16071600 1.78816700 -1.25206800
F 3.79754100 0.94280700 -0.08919400
F 2.19752800 -0.65407300 1.24162500
F 2.05333900 -0.86240200 -0.91840800
F -0.10964500 0.61786900 1.37763600
F -0.18806900 -1.34390500 0.43820000
H -2.33506600 -3.09550200 -4.98898500
30
energy = -2625.4370217000005
C 0.11511000 0.40357500 -0.22216100
C -0.82829300 -0.45036200 0.68514200
C -2.24694700 -0.64381900 0.07155100
C -3.33882600 -1.14524800 1.07661200
C -2.98966300 -2.44944400 1.84691200
F -2.46959800 -3.34758600 1.01633700
F -2.12098300 -2.16817300 2.81294300
S -4.48271700 -3.23181200 2.68418400
O -3.97286000 -4.31532900 3.46633300
O -5.28789300 -2.16582900 3.21834200
O -5.22613800 -3.87158700 1.42789900
F -3.59830600 -0.17842200 1.94955300
F -4.44343000 -1.38045100 0.33838000
F -2.67479200 0.53653800 -0.39474600
F -2.17255600 -1.51602200 -0.93506300
F -0.94477700 0.16234800 1.86621500
F -0.28598800 -1.66292700 0.86288200
C 1.62140200 0.19634100 0.13333100
C 2.52167700 1.34693600 -0.40923100
C 4.03141200 0.97171700 -0.46202500
F 4.40137400 0.42706500 0.68988600
F 4.25973900 0.11530900 -1.44426500
F 4.74324900 2.06808400 -0.67095800
F 2.38381600 2.40902800 0.38675300
F 2.12696400 1.66287300 -1.64890400
F 1.75181100 0.14551700 1.46335600
F 2.02719900 -0.96200800 -0.39803500
F -0.07169600 0.05918400 -1.49996500
F -0.19532200 1.69333000 -0.05778400
H -5.84782600 -3.22416600 1.05184100
30
energy = -2625.43640493
C 0.02477800 -0.04854900 0.04008600
C -0.46318800 -1.53581400 0.10338900
C -0.02471400 -2.37408400 1.34511600
C -0.96802400 -3.59474800 1.59567700
C -0.30371800 -4.66122800 2.51737200
F 0.54502800 -5.40141000 1.80481300
F 0.34074400 -4.07003700 3.51640500
S -1.58024300 -5.83170600 3.24932700
O -2.14133100 -5.21973900 4.41372300
O -2.35625200 -6.33569600 2.14700800
O -0.59160600 -6.97925500 3.75595200
F -2.08900800 -3.16641300 2.18161700
F -1.25782100 -4.17058000 0.42754000
F 1.21002200 -2.84667200 1.12932600
F -0.02836000 -1.60346500 2.43464700
F -0.03917000 -2.15965700 -0.99741000
F -1.80240400 -1.47581600 0.09296500
C 1.55975800 0.16281700 0.05570200
C 2.04613600 1.64751200 0.05005100
C 1.55336200 2.54798500 -1.11797500
F 1.62918500 1.89575300 -2.26934800
F 0.30146400 2.92603200 -0.90664200
F 2.31900400 3.62612300 -1.18021400
F 3.38148200 1.59626400 -0.01365700
F 1.68046800 2.21974700 1.20016000
F 2.04867700 -0.37680900 1.18202300
F 2.08722300 -0.46483800 -0.99902300
F -0.44497700 0.42965400 -1.12161500
F -0.52130300 0.63304800 1.04962400
H -0.45672700 -7.63480700 3.04991600
30
energy = -2625.42661411
C 0.24679100 0.16886900 -0.08132900
C -0.44048700 -1.24079200 0.05218600
C -0.25676100 -2.32133500 -1.06943900
C 1.19129600 -2.91264800 -1.28151300
C 1.83644800 -2.48101700 -2.63013700
F 1.20585200 -3.09618400 -3.62338100
F 1.74848200 -1.15927200 -2.78986500
S 3.65321100 -2.93773600 -2.79266600
O 3.84063700 -4.23634100 -2.22150100
O 4.01762300 -2.59340600 -4.14029200
O 4.30708300 -1.88250300 -1.79299300
F 1.97477500 -2.52280300 -0.26388400
F 1.11328700 -4.23831400 -1.28316800
F -1.04612900 -3.33185800 -0.69758200
F -0.71894600 -1.82470500 -2.22334500
F -1.75621500 -0.98158800 0.03598200
F -0.12892700 -1.79357000 1.22655400
C 1.73741000 0.34733900 0.36461000
C 2.07655000 1.84202600 0.67475900
C 3.60761500 2.13309000 0.65956000
F 3.82302400 3.32998200 1.18022300
F 4.25458500 1.22376800 1.37547200
F 4.07117500 2.11736200 -0.58306200
F 1.61527600 2.15009500 1.88730500
F 1.50255700 2.63032900 -0.24126100
F 1.99781200 -0.37126300 1.45510800
F 2.53947700 -0.05089000 -0.63491000
F 0.14782800 0.56428100 -1.35553400
F -0.47682800 0.99041100 0.69395100
H 4.52977900 -1.06360200 -2.26900300
30
energy = -2625.43299401
C 0.09436900 0.11148000 0.09559000
C -0.65514700 -1.24527500 0.28990000
C -2.20871000 -1.24077800 0.07840300
C -3.01400800 -0.27797800 0.99202300
C -4.56309900 -0.28703700 0.70963600
F -4.93189500 -1.40295900 0.08907600
F -5.21255700 -0.19278800 1.86774100
S -5.13043900 1.16321000 -0.34197400
O -5.07814300 2.34861500 0.47117600
O -4.50531400 1.04044400 -1.62340500
O -6.66075400 0.73265800 -0.50599400
F -2.81496500 -0.63719100 2.26034100
F -2.56397700 0.97323400 0.81566000
F -2.47739200 -0.95495100 -1.19540600
F -2.60491600 -2.49116300 0.35040500
F -0.40939300 -1.68629700 1.52589100
F -0.17774500 -2.12758100 -0.59841600
C 1.60325600 -0.08832900 -0.24099800
C 2.51154700 1.16826800 -0.04812500
C 2.06145700 2.45819300 -0.78630800
F 1.78397500 2.18977600 -2.05396900
F 0.98601800 2.96708200 -0.20185300
F 3.03914300 3.34892900 -0.73442300
F 3.71924100 0.83272800 -0.51659700
F 2.60813100 1.44182000 1.25535200
F 2.09482000 -1.03911500 0.56586600
F 1.70985100 -0.48476100 -1.51104000
F -0.46699100 0.79713300 -0.90707400
F -0.00588600 0.81139000 1.23160000
H -7.20091400 1.21192300 0.14600600
30
energy = -2625.4353919800005
C 0.19125700 -0.04145700 -0.18301500
C -0.47216700 0.72224600 -1.37186000
C -0.17764900 0.19813400 -2.80782900
C -1.16097500 0.72328600 -3.91048600
C -1.30973200 2.26848300 -3.98614400
F -2.10426600 2.68827300 -2.99854600
F -0.12391500 2.85651900 -3.89302700
S -2.10455200 2.80690100 -5.60387500
O -1.08299100 2.89280800 -6.60071400
O -3.31270800 2.03910900 -5.75009700
O -2.48645600 4.30249400 -5.19465100
F -0.67116100 0.30088100 -5.08308000
F -2.36104300 0.18338700 -3.71251100
F 1.05999800 0.55358400 -3.15782800
F -0.27440400 -1.13508500 -2.81774000
F -0.09337200 2.00726500 -1.31005300
F -1.79302100 0.64825200 -1.16115800
C 1.74735600 -0.14984600 -0.13934500
C 2.54570100 1.18849200 -0.11632100
C 4.01454000 1.01364400 0.37417200
F 4.04463000 0.80913400 1.68061500
F 4.58253200 -0.01325000 -0.24399500
F 4.69282200 2.11584300 0.09503900
F 1.94172200 2.06163600 0.69646700
F 2.58337500 1.68901900 -1.35382300
F 2.03511300 -0.82478700 0.98274800
F 2.14254600 -0.87043000 -1.19473600
F -0.21864400 0.57260800 0.93196900
F -0.27659400 -1.29379400 -0.18037500
H -3.37891200 4.32155800 -4.80786000
30
energy = -2625.4266475
C 0.36762900 0.10962800 -0.00575700
C -0.41810500 0.44567500 -1.32201900
C -0.23747600 1.86984400 -1.91073000
C -1.04422000 2.21076900 -3.21299100
C -2.61711900 2.25174700 -3.12509200
F -3.01852300 2.32563300 -1.86280400
F -3.04292600 3.32610500 -3.78139600
S -3.50618900 0.81080100 -3.96338400
O -4.77683600 0.69819000 -3.31565600
O -3.33881800 1.00052000 -5.37870700
O -2.63716400 -0.44418500 -3.50200100
F -0.63122400 3.42685000 -3.56694300
F -0.67331400 1.34295400 -4.17472500
F -0.54797000 2.77155800 -0.97719500
F 1.04966100 2.01108000 -2.25847100
F -1.70830800 0.28394100 -1.00879900
F -0.07683600 -0.45276000 -2.25751200
C 1.94297500 0.13943900 -0.04259100
C 2.56903800 1.43601000 0.55839300
C 4.07409600 1.61116100 0.20113300
F 4.73649600 0.48906800 0.44713600
F 4.20720900 1.92618500 -1.07752600
F 4.58092700 2.58487900 0.94062100
F 2.45887200 1.37082800 1.88690400
F 1.91700600 2.51771100 0.11531900
F 2.38453000 -0.88289800 0.69237000
F 2.37167700 -0.02675800 -1.30167300
F -0.06678800 0.92521900 0.96235000
F 0.00350200 -1.14139300 0.29019000
H -1.92070600 -0.60089500 -4.14202800
30
energy = -2625.4284425799997
C 0.28846500 -0.29395500 -0.10216700
C -0.56545800 0.34885800 1.04555900
C -0.21081700 -0.03013400 2.52923000
C -0.99855300 -1.25162400 3.11740000
C -2.41200000 -0.90628900 3.70690300
F -2.94618400 0.15137200 3.10415800
F -3.21092400 -1.95852000 3.53350800
S -2.43550400 -0.52632200 5.55056800
O -1.28797900 0.26159300 5.88235700
O -3.78694700 -0.12448000 5.83671800
O -2.20499000 -1.99291400 6.13813600
F -1.15539200 -2.17734300 2.16682700
F -0.25668900 -1.78074700 4.09555400
F 1.09117000 -0.32709200 2.59730000
F -0.44564500 1.03271900 3.30045000
F -1.83197300 -0.02077700 0.79688200
F -0.48849300 1.67585000 0.92696000
C 1.82812800 -0.00522800 -0.25416600
C 2.26270000 1.46934000 -0.05514000
C 3.73404800 1.76147100 -0.47310500
F 4.55870400 0.89425400 0.09623200
F 3.86277000 1.68758300 -1.78789300
F 4.05206000 2.98460400 -0.07681600
F 2.13499700 1.77638000 1.24221500
F 1.46844700 2.25797300 -0.78725700
F 2.51422400 -0.78129100 0.58486000
F 2.13917500 -0.36363700 -1.50894300
F 0.16668900 -1.62372400 -0.01668600
F -0.28965100 0.12745100 -1.23328600
H -3.06571200 -2.40078400 6.33704000
30
energy = -2625.4303207000003
C -0.00863500 0.34656900 -0.49728300
C -0.41141100 1.09170800 -1.81354700
C -0.07349300 0.35367400 -3.16915300
C -1.23313500 0.43918500 -4.21132600
C -0.79350300 -0.02292400 -5.63362500
F -0.04256800 0.91273300 -6.19871000
F -0.11099000 -1.16745000 -5.56448700
S -2.24096100 -0.31320400 -6.80101500
O -3.24177900 0.67267000 -6.52723200
O -1.65814900 -0.52177500 -8.09965400
O -2.77506300 -1.71382200 -6.25237100
F -2.24036400 -0.33593600 -3.80119500
F -1.63090600 1.70918200 -4.30520400
F 1.00225600 0.92113900 -3.72034100
F 0.18813300 -0.93654600 -2.92520700
F 0.18985300 2.28480600 -1.81828700
F -1.73573300 1.27065700 -1.72818200
C 1.53570600 0.14609200 -0.28753900
C 2.25686300 1.09727200 0.72139600
C 2.27653100 2.61901500 0.40258400
F 2.70223300 2.81948400 -0.83663300
F 1.07433600 3.15417100 0.54398200
F 3.10792100 3.21136200 1.24629400
F 3.53440400 0.69490200 0.74339700
F 1.72283500 0.92286200 1.93302700
F 1.72853500 -1.08794200 0.18321600
F 2.15381500 0.25539800 -1.47491300
F -0.50089500 1.07397800 0.51459600
F -0.61046300 -0.84269200 -0.48485700
H -2.38754300 -2.43692100 -6.77556500
30
energy = -2625.43292064
C -0.02702800 0.18532500 0.18081000
C -0.51692000 0.85134400 -1.13785800
C -2.06685600 0.82437700 -1.37193400
C -2.92834400 1.40525500 -0.21238900
C -4.41267800 1.69955200 -0.62378600
F -4.79717800 0.88031500 -1.59743500
F -5.19297300 1.51075800 0.44090900
S -4.75871300 3.45309000 -1.21276700
O -3.66579000 3.90950900 -2.01508800
O -6.12582800 3.43751200 -1.66008300
O -4.68323800 4.22488800 0.18273900
F -2.95522200 0.50090600 0.77243300
F -2.37486800 2.53190300 0.24930800
F -2.28872000 1.54300300 -2.47692700
F -2.44772900 -0.43715300 -1.58709600
F 0.02796100 0.20461400 -2.17511700
F -0.11860000 2.12492800 -1.15397300
C 1.49086300 -0.17534000 0.26539500
C 2.55187400 0.94441200 0.04900000
C 2.53348900 2.14846900 1.03248000
F 1.46446900 2.90295600 0.83020000
F 2.53585600 1.72232500 2.28680500
F 3.61792700 2.87874300 0.82148700
F 2.42856400 1.41597700 -1.19720900
F 3.74485800 0.35196300 0.17666900
F 1.67960600 -0.69119100 1.48643100
F 1.74221000 -1.12017600 -0.64632500
F -0.32141000 0.99869700 1.20415900
F -0.68342100 -0.97103000 0.34192100
H -5.57209800 4.27731600 0.57517800
30
energy = -2625.43286343
C -0.04556200 0.08329900 -0.04676300
C -0.72862000 -1.29290500 0.19437400
C -2.29514400 -1.29765000 0.11590700
C -2.94837800 -0.82420500 -1.21967700
C -4.40051700 -1.37140100 -1.38565200
F -4.35356300 -2.61737700 -1.82846100
F -5.03803700 -1.32126000 -0.21804200
S -5.44822600 -0.35673200 -2.58855900
O -6.36385800 -1.27215700 -3.19725500
O -5.84972400 0.83817300 -1.89662200
O -4.36173600 0.02599000 -3.69504400
F -2.99793300 0.51915400 -1.22382200
F -2.21730400 -1.24131800 -2.25401300
F -2.66111500 -2.57172100 0.31708700
F -2.76363500 -0.53838700 1.10692200
F -0.43734100 -1.70331900 1.43337600
F -0.24784500 -2.17311700 -0.68825600
C 1.51582300 0.01631800 -0.01665000
C 2.20827100 1.42650900 0.04532500
C 2.58479900 1.89862700 1.48073700
F 1.55551100 1.76718000 2.30535600
F 3.60317300 1.18842300 1.93860400
F 2.93627200 3.17429600 1.43004200
F 1.40300700 2.34470600 -0.50384100
F 3.33840400 1.36399200 -0.66124000
F 1.92059300 -0.70769300 1.03577300
F 1.90961400 -0.59283800 -1.13629600
F -0.40145000 0.52034800 -1.26339200
F -0.48529000 0.93943400 0.87997300
H -3.96857000 0.89030800 -3.48024400
30
energy = -2625.43170705
C 0.11472300 0.19987300 0.33565300
C -0.72510400 -1.11538600 0.24837000
C -0.51999200 -2.21731100 1.33756500
C -0.77657700 -1.80822000 2.81800400
C -0.98435100 -2.98790900 3.82725800
F -1.02621100 -2.44307000 5.03824300
F -2.14124700 -3.58721100 3.56316400
S 0.31748300 -4.34438500 3.86859200
O 0.22764700 -4.94465800 5.16338500
O 0.19720300 -5.07681900 2.63679700
O 1.65891700 -3.48409500 3.84270200
F 0.25684900 -1.07662700 3.24405600
F -1.89143900 -1.07254600 2.87459300
F -1.34558200 -3.21227900 1.01857300
F 0.75649800 -2.65274000 1.23480800
F -0.46624500 -1.69996500 -0.92482300
F -2.00839400 -0.74484200 0.27173100
C 1.66479400 0.05158700 0.30225800
C 2.46090800 1.35178000 -0.04483900
C 2.16610600 2.59692700 0.83603800
F 0.96599000 3.08470100 0.55560000
F 2.21607400 2.27107400 2.11989600
F 3.07515100 3.52482300 0.58649800
F 2.23760000 1.67254900 -1.32043200
F 3.75379100 1.04415700 0.11158500
F 2.08276900 -0.37581500 1.50022900
F 1.99705600 -0.85521400 -0.62382300
F -0.25967800 0.93791800 -0.71617200
F -0.22526900 0.83713000 1.46413000
H 1.92551800 -3.31589300 2.92069700
30
energy = -2625.4350144600003
C -0.05265700 0.07178100 0.27332200
C -0.64801800 0.56952500 -1.08109600
C -2.16725900 0.24984800 -1.22125500
C -2.92001300 1.06204800 -2.33145100
C -2.28897200 0.98578400 -3.74912700
F -1.19754200 1.74224600 -3.79270600
F -1.97548000 -0.27548800 -4.05001800
S -3.42206100 1.61231500 -5.11391300
O -4.16024000 2.72866600 -4.60693500
O -2.60998700 1.66238800 -6.30024100
O -4.42800300 0.37962600 -5.23702200
F -4.15560100 0.55109900 -2.39344800
F -2.98304200 2.33845100 -1.96076400
F -2.31412200 -1.05008800 -1.48525400
F -2.77360400 0.53916400 -0.06362300
F -0.00867600 -0.02207100 -2.09845600
F -0.47462300 1.89294500 -1.15758300
C 1.50021200 -0.08935700 0.33592900
C 2.40014100 1.13546600 -0.00510900
C 2.26078700 2.40158300 0.88707000
F 1.09947800 3.00017300 0.67082400
F 2.35527000 2.08135100 2.16846300
F 3.23742500 3.24042900 0.57702000
F 2.17091600 1.49204100 -1.27530400
F 3.66336100 0.71089300 0.10962800
F 1.78408400 -0.47719100 1.58502300
F 1.84746400 -1.06555900 -0.50954100
F -0.42501700 0.91610100 1.24011900
F -0.55692900 -1.14180900 0.53421500
H -4.12503100 -0.21881700 -5.94194400
30
energy = -2625.4284628600003
C 0.16076000 0.34205700 -0.14345800
C -0.74608100 0.79605100 1.05573500
C -0.53785400 2.23438700 1.60511800
C -1.59133200 2.76193700 2.63491600
C -1.80976000 2.01360400 3.98789600
F -2.66447200 2.75378200 4.68568000
F -2.34889100 0.82125300 3.74330700
S -0.31629900 1.71226000 5.09765700
O -0.82622300 1.63225000 6.43124200
O 0.47134200 0.68012000 4.48094700
O 0.45066600 3.10347800 4.97356900
F -1.20891700 4.01354400 2.92117000
F -2.78123100 2.80047100 2.03103400
F 0.67747200 2.32243600 2.18867900
F -0.58416300 3.08672900 0.57878500
F -0.59512200 -0.08362000 2.04478600
F -2.00367700 0.73327400 0.59643800
C 1.71527900 0.24386200 0.10352500
C 2.52345200 1.44934500 -0.46193300
C 3.98945700 1.51439300 0.05961600
F 4.00809500 1.88029100 1.33264900
F 4.57520500 0.33279600 -0.06531500
F 4.65726700 2.40812500 -0.65302800
F 1.92125000 2.59706900 -0.12091700
F 2.56028000 1.34705000 -1.79134600
F 1.95652500 0.12827200 1.41604300
F 2.15889800 -0.85257400 -0.51282100
F -0.27067500 -0.88703100 -0.43942500
F -0.07335400 1.14164400 -1.19096600
H 1.05010500 3.08091400 4.20573200
30
energy = -2625.43088257
C 0.14646700 -0.09745700 0.14367300
C -0.68233900 0.55029700 1.30402600
C -0.46073100 -0.06854200 2.72129200
C -0.97648600 0.87217100 3.85556400
C -1.17091600 0.11173200 5.20079900
F -2.31598800 -0.56913100 5.16476400
F -0.15722900 -0.71924100 5.41237500
S -1.27481700 1.29693100 6.65700800
O 0.05454300 1.62493400 7.06971500
O -2.28123300 2.27084900 6.32612400
O -1.86625900 0.28831700 7.74500600
F -0.08275700 1.84788800 4.04135100
F -2.14934000 1.39492600 3.49408400
F -1.12928100 -1.22530200 2.78930700
F 0.83731200 -0.29967700 2.92638900
F -1.96687100 0.35550000 0.98977200
F -0.44998000 1.86757500 1.35073100
C 1.68380300 0.16340900 -0.04936700
C 2.17121200 1.65136600 -0.16443500
C 2.75279200 2.24020800 1.15689300
F 1.96084300 1.97419700 2.18991900
F 3.94682700 1.72092900 1.38897500
F 2.86577900 3.55202700 1.03037000
F 1.16907800 2.42916200 -0.58704000
F 3.15431200 1.69380800 -1.06709600
F 2.37812800 -0.44622000 0.91755100
F 1.96999100 -0.43891900 -1.20970200
F 0.01240500 -1.42648500 0.27273200
F -0.44245400 0.29308300 -0.99173300
H -2.83858400 0.30618400 7.71837900
30
energy = -2625.4225165000003
C 0.21767200 0.47825100 -0.29109900
C -0.45920000 0.89559800 1.05911800
C -0.19506000 0.12989100 2.40796200
C -1.05124600 -1.12666200 2.80136000
C -0.84684200 -2.44392700 1.96837500
F 0.21569300 -2.33594600 1.17481400
F -0.66004000 -3.46877100 2.79492900
S -2.35417700 -2.88646300 0.93388500
O -3.33395300 -3.44270500 1.82800100
O -2.61419100 -1.80059500 0.03931600
O -1.71174900 -4.07600900 0.08238500
F -0.68421400 -1.40178300 4.05683700
F -2.34641800 -0.79630800 2.79959500
F 1.09455900 -0.20869700 2.50739000
F -0.47994300 1.01710400 3.37068400
F -1.77706100 0.88115900 0.83663000
F -0.07044800 2.16158300 1.27345000
C 1.77718400 0.39764100 -0.40419600
C 2.57466900 1.64229300 0.07727000
C 4.06244800 1.64259100 -0.38589000
F 4.63026500 0.47525600 -0.11363500
F 4.14375100 1.87473500 -1.68549400
F 4.70954200 2.59877700 0.26332900
F 2.56356400 1.67217700 1.41440500
F 1.99966100 2.75071100 -0.39914300
F 2.20744500 -0.68095600 0.25583800
F 2.03168600 0.22868700 -1.71055800
F -0.24583000 -0.71240000 -0.67452100
F -0.19107800 1.39697300 -1.17490600
H -1.94963300 -4.92778500 0.48825400
30
energy = -2625.43178466
C 0.07318200 0.25803000 -0.20235200
C -0.40640700 0.84188800 1.16283700
C -1.95661000 0.82248600 1.31894300
C -2.55474800 1.58308100 2.54983800
C -2.40678900 3.13335400 2.71892800
F -3.24383000 3.47471900 3.69409300
F -1.16370100 3.42915300 3.08413900
S -2.80939200 4.22355600 1.24268000
O -3.14248400 5.50939300 1.77191200
O -1.77875700 4.00505100 0.26372700
O -4.16710700 3.55682600 0.74025900
F -3.86722200 1.32099900 2.51495700
F -2.02205600 1.03619800 3.64777500
F -2.52424100 1.30930500 0.19310000
F -2.34206900 -0.44554200 1.46708800
F 0.03247700 2.10017700 1.25010000
F 0.10785600 0.11909500 2.16302500
C 1.59245200 -0.11516800 -0.27792900
C 2.58903600 1.01731000 0.09689200
C 4.05648100 0.71987900 -0.33116400
F 4.40309100 -0.50333100 0.04674300
F 4.18418100 0.82434000 -1.64366500
F 4.85888600 1.59666700 0.25165600
F 2.56896800 1.16991700 1.42617000
F 2.20994200 2.15708200 -0.48872900
F 1.81004400 -1.16142700 0.52201100
F 1.82043200 -0.47887700 -1.54765900
F -0.60045800 -0.87480000 -0.44641700
F -0.19857500 1.14208400 -1.16254000
H -3.96769800 2.84537800 0.10516500
30
energy = -2625.4287306700003
C 0.14967100 0.03687000 0.04312400
C -0.68724500 0.75830400 -1.07465500
C -0.31320500 2.18003100 -1.61508700
C -0.70440700 3.37091400 -0.68831500
C 0.02258300 4.71722300 -0.99689000
F -0.50034400 5.63606100 -0.19052200
F 1.32426000 4.58968700 -0.73979300
S -0.14828900 5.36025600 -2.74888800
O 0.68808500 4.55752700 -3.60099700
O -1.53906400 5.59826800 -2.98618300
O 0.55904300 6.77703200 -2.53889600
F -2.01653700 3.57342700 -0.78429300
F -0.39792900 3.07686000 0.58168400
F 0.99241800 2.22801300 -1.89893400
F -1.00258400 2.33930400 -2.75070800
F -1.94043600 0.83666600 -0.60376000
F -0.66780300 -0.05673200 -2.13451100
C 1.69130300 -0.15678600 -0.19986400
C 2.58403400 0.90011600 0.52419700
C 4.03663100 0.95945000 -0.03020800
F 4.54528100 -0.26250500 -0.10753800
F 4.04760300 1.51565700 -1.23076500
F 4.78072800 1.68715800 0.78867400
F 2.64379300 0.57667500 1.81740400
F 2.05248100 2.12513700 0.40662100
F 2.03316400 -1.35091000 0.28852600
F 1.94771400 -0.14665800 -1.51501200
F -0.02982400 0.64091500 1.22208100
F -0.39310600 -1.18406600 0.11441400
H 1.48785200 6.71886900 -2.82285900
30
energy = -2625.4152235
C 0.29217300 -0.44858300 0.04108500
C -0.70933800 0.01542400 -1.07763200
C -0.28959200 -0.28809300 -2.56387000
C -0.63729200 -1.66495000 -3.25293900
C 0.20625100 -2.95833600 -2.94150200
F 0.23259800 -3.69264500 -4.05041500
F 1.45016600 -2.65235300 -2.59753300
S -0.50874100 -4.12886000 -1.64940600
O -1.61370400 -4.79959400 -2.26311400
O 0.60003400 -4.81488000 -1.04121300
O -1.08722700 -3.07797800 -0.59246200
F -1.93056300 -1.93674800 -3.06172200
F -0.43405400 -1.42378600 -4.55459100
F -0.95905100 0.61417400 -3.29200500
F 1.02319400 -0.06568900 -2.70183700
F -0.80903800 1.35217600 -0.96671200
F -1.91224600 -0.50033500 -0.84950100
C 1.15469600 0.64875500 0.75951000
C 2.21738000 1.48104600 -0.04066300
C 1.77316300 2.73660100 -0.86301900
F 1.26975500 2.38916700 -2.03668200
F 0.88232900 3.45366400 -0.19742700
F 2.84913500 3.47864700 -1.07809800
F 2.86788600 0.65155800 -0.86471500
F 3.06772500 1.94105900 0.88493600
F 0.33249500 1.46991000 1.41485100
F 1.86543200 -0.05193400 1.65636400
F -0.43398400 -0.99771000 1.03063700
F 1.11749200 -1.39499600 -0.42922600
H -0.54970400 -3.09979300 0.21885600
30
energy = -2625.42825322
C 0.14848700 -0.30032000 0.55011500
C -0.76885200 0.68418200 1.33036600
C -2.30981700 0.33622600 1.24729800
C -3.08170500 1.17584500 0.18274200
C -4.54235600 0.65656800 -0.08364000
F -5.00758300 -0.00931400 0.96898600
F -5.33139400 1.70293600 -0.32124700
S -4.68352200 -0.45326700 -1.59368400
O -4.55589700 0.37922300 -2.75960000
O -3.89967400 -1.62739600 -1.35955800
O -6.22082500 -0.85842200 -1.42801500
F -3.17481500 2.43023800 0.62563800
F -2.40921900 1.16469300 -0.97522200
F -2.47486400 -0.96074800 0.97439400
F -2.85036200 0.60653600 2.43794800
F -0.59587700 1.93043900 0.86545300
F -0.40153100 0.64920900 2.61239800
C 1.68937400 -0.00605400 0.56150400
C 2.19729700 1.33025600 -0.09480500
C 2.60439400 2.42901900 0.93354800
F 1.66937800 2.59657900 1.85957100
F 3.73815100 2.08611900 1.52434400
F 2.78024000 3.57277500 0.29020500
F 1.26424600 1.82530000 -0.91468400
F 3.29012400 1.05566700 -0.81135000
F 2.11670900 -0.05907300 1.83127800
F 2.23476800 -1.02016500 -0.11567100
F 0.02506400 -1.50206400 1.12808200
F -0.25956100 -0.37372600 -0.71913800
H -6.76728400 -0.28427600 -1.99217500
30
energy = -2625.43069615
C 0.21488000 0.25713900 0.13318900
C -0.54862100 0.44647500 -1.23469200
C -0.97852600 1.91307100 -1.52602400
C -1.54636300 2.15946000 -2.96411200
C -0.57310500 1.92727500 -4.16732900
F 0.68374600 2.17288400 -3.80628800
F -0.68969100 0.67868700 -4.59256700
S -0.92800200 3.05888600 -5.63772400
O -0.47573200 4.37734400 -5.28573900
O -0.49102800 2.35285800 -6.80272000
O -2.52490900 3.03312100 -5.64914900
F -2.61889500 1.38752900 -3.13423100
F -1.93807900 3.45028200 -2.97426900
F -1.96908100 2.22689400 -0.68473000
F 0.04755600 2.74319600 -1.32348100
F -1.66155200 -0.28756500 -1.19641300
F 0.21791400 0.00585700 -2.24336500
C 1.77593900 0.12089500 0.08055600
C 2.58239200 1.33958600 -0.44608100
C 4.12512900 1.19871300 -0.27427200
F 4.45144800 1.22741500 1.00760900
F 4.55182100 0.06387800 -0.80862200
F 4.70974500 2.21411400 -0.89114600
F 2.20336500 2.43433400 0.22194000
F 2.33078100 1.49834500 -1.75065700
F 2.15969000 -0.09765000 1.34664800
F 2.07293700 -0.95381400 -0.65563300
F -0.10117000 1.25833700 0.96300500
F -0.21362700 -0.89153500 0.66429000
H -2.86569300 3.75491700 -5.09168700
30
energy = -2625.4363107700005
C 0.06014300 0.09134000 0.20207200
C -0.66094600 -1.29204900 0.30114200
C -2.21304100 -1.30765300 0.08570500
C -3.05054700 -0.44238700 1.06885900
C -4.56841300 -0.41811300 0.71092000
F -4.76573000 0.40038900 -0.31381700
F -5.00735000 -1.63749400 0.40241200
S -5.60291200 0.19324800 2.15777600
O -5.77378200 -0.89726200 3.08034100
O -5.09404600 1.47974500 2.52534500
O -6.98233900 0.41416800 1.38143500
F -2.90252800 -0.92861000 2.30496900
F -2.60860500 0.81645400 1.02451800
F -2.48583000 -0.91240000 -1.16266200
F -2.58236400 -2.58505500 0.23221400
F -0.40544800 -1.81602100 1.50152100
F -0.16502900 -2.09712900 -0.64981800
C 1.57284800 -0.05613800 -0.15846200
C 2.38978700 1.23259700 0.16442700
C 3.76711400 1.28346600 -0.55903200
F 4.40824200 0.13379700 -0.39167000
F 3.60321100 1.50857800 -1.85248300
F 4.49182900 2.26234900 -0.04007300
F 2.61241600 1.28167700 1.47928500
F 1.68398400 2.30634400 -0.21039900
F 2.09051000 -1.07007000 0.54389100
F 1.67723300 -0.31908400 -1.46578100
F -0.52860000 0.83751600 -0.73694300
F -0.03052700 0.70405300 1.38776700
H -7.56916900 -0.34371800 1.54848800
30
energy = -2625.4281352400008
C 0.19222600 0.20813800 -0.06113400
C -0.28149500 -1.28817700 -0.02554100
C 0.05114700 -2.14237400 1.25220200
C 1.37011400 -3.00590300 1.18223200
C 1.19964200 -4.51515000 0.81206700
F 2.42468000 -5.05240600 0.82639200
F 0.44865200 -5.12149100 1.72181200
S 0.50315300 -4.90186100 -0.88529800
O -0.88719700 -4.56252500 -0.88773700
O 1.45017100 -4.42578300 -1.85716900
O 0.60314400 -6.49349200 -0.80745900
F 2.24721400 -2.47633900 0.32387000
F 1.90971700 -3.00803200 2.40521000
F 0.13979600 -1.32046700 2.30231800
F -0.97113400 -2.97619000 1.46469600
F 0.19774100 -1.90160900 -1.11548700
F -1.61182300 -1.22472200 -0.11444700
C 1.71802300 0.47458200 0.06137700
C 2.08133900 1.99257800 0.09383300
C 3.59922100 2.26175300 -0.13120100
F 4.32614500 1.47520500 0.65138500
F 3.92371100 2.04074900 -1.39471200
F 3.85881300 3.52579800 0.16573800
F 1.74723200 2.47871300 1.29200400
F 1.40617800 2.64860400 -0.85447200
F 2.16374600 -0.06306200 1.20645200
F 2.33499000 -0.10429000 -0.97417200
F -0.21560500 0.67258800 -1.24799700
F -0.43330900 0.87867300 0.91219000
H 1.45013700 -6.78534900 -1.18716500
30
energy = -2625.4353209400006
C 0.01218100 -0.01102100 0.21842100
C -0.71500400 0.95629400 1.19410900
C -2.27226400 0.92861200 1.04575900
C -2.98900700 1.55325700 2.28501000
C -4.46426500 1.94997900 1.97036100
F -4.47988200 3.12250000 1.35665900
F -5.02458700 1.02113500 1.19816900
S -5.55157200 2.07261100 3.50979300
O -6.53940800 3.06865100 3.22947100
O -5.86029200 0.72947000 3.91996900
O -4.52288500 2.70900700 4.55313000
F -2.97898100 0.65531100 3.28344000
F -2.32721500 2.64457700 2.67468000
F -2.60538900 1.63729900 -0.03798200
F -2.69622900 -0.32829500 0.90512900
F -0.30838900 2.20587800 0.94470000
F -0.39125900 0.62238600 2.44941200
C 1.57788600 0.04060800 0.23770700
C 2.25510600 1.40581500 -0.08955200
C 3.72241300 1.24849300 -0.58880500
F 4.38162600 0.41677100 0.20764500
F 3.74696600 0.78375500 -1.82669700
F 4.31412000 2.43255900 -0.56255300
F 2.28484500 2.14501000 1.02312100
F 1.55994200 2.04582600 -1.03552700
F 1.99057400 -0.35293000 1.44537000
F 1.97500100 -0.85633700 -0.67697500
F -0.30699100 -1.26652100 0.55137200
F -0.41674700 0.24079200 -1.02271900
H -4.09325300 1.99874600 5.06176000
30
energy = -2625.4355985200004
C 0.02522700 -0.04037000 -0.08047000
C -0.51424800 -1.50675400 -0.15871500
C -2.06688200 -1.59020800 -0.12459500
C -2.65653800 -3.03483400 0.01942200
C -2.27997500 -3.83467400 1.30606100
F -1.14732400 -4.49622100 1.11108000
F -2.15993400 -3.02636900 2.35844800
S -3.60442900 -5.10294200 1.72814700
O -4.69232100 -4.42675400 2.38316400
O -3.75704700 -5.94383200 0.57958300
O -2.79217100 -5.92510700 2.83232700
F -3.98809700 -2.88474000 -0.00006000
F -2.27419900 -3.74881500 -1.03806800
F -2.51882300 -0.83546300 0.88262700
F -2.54236200 -1.11669100 -1.27990900
F -0.03236900 -2.17604400 0.89750600
F -0.08118200 -2.08232800 -1.28387600
C 1.50250100 0.07187300 -0.56260500
C 2.25344700 1.37442800 -0.14065800
C 1.56654600 2.71203300 -0.52823900
F 1.20926000 2.69151300 -1.80424600
F 0.49106800 2.90653400 0.22288100
F 2.41411800 3.70844400 -0.32933200
F 3.44374000 1.33681100 -0.75002500
F 2.43631000 1.36233300 1.18211200
F 2.19570400 -0.95252700 -0.04657700
F 1.52132600 -0.00762200 -1.89500600
F -0.72505700 0.75456500 -0.85327400
F -0.05935900 0.36656700 1.18951500
H -3.08178000 -5.64357300 3.71739900
30
energy = -2625.43156999
C 0.15210300 0.00190400 0.35991200
C -0.48051400 -1.43304400 0.43573900
C -2.03680400 -1.53018700 0.26059700
C -2.96099100 -0.75474800 1.26254300
C -3.32704900 -1.55407500 2.54965000
F -4.27978900 -2.42618300 2.26181200
F -2.25596400 -2.18536700 3.02248700
S -3.93364500 -0.45491100 3.96249600
O -4.86059800 -1.24190200 4.71614200
O -2.77383900 0.18035300 4.52753700
O -4.78208000 0.63737400 3.16432500
F -2.36705200 0.40094800 1.61867600
F -4.09478200 -0.46704100 0.62580500
F -2.32639300 -1.10356000 -0.96981200
F -2.34875100 -2.83149100 0.34777700
F -0.12702800 -1.98730600 1.59401100
F 0.01419700 -2.17033700 -0.57021100
C 1.60282200 -0.02101900 -0.21756600
C 2.38640500 1.29758900 0.06980100
C 3.64545500 1.47171700 -0.83018200
F 4.35992400 0.35396600 -0.83219500
F 3.29147900 1.76700400 -2.07042100
F 4.38587200 2.45759800 -0.34787200
F 2.78670000 1.28970900 1.34257400
F 1.58179600 2.34726200 -0.13846200
F 2.27221600 -1.03354400 0.34441400
F 1.53610200 -0.20323100 -1.54085900
F -0.60550400 0.78702900 -0.41406200
F 0.20715400 0.51323500 1.59391900
H -4.21851000 1.40585300 2.96520400
30
energy = -2625.42885136
C 1.05028000 0.16143500 1.17768700
C 0.23553000 -0.95813900 0.42182200
C -0.31449700 -2.08639400 1.35722400
C 0.77621000 -3.11583400 1.86227600
C 0.81978600 -3.40040800 3.39967800
F 1.93780300 -4.07844800 3.64220300
F 0.83587200 -2.26579800 4.08801500
S -0.57644100 -4.47882900 4.06254500
O -0.27933900 -5.82974500 3.69892600
O -0.82989300 -4.04534300 5.41006300
O -1.78622100 -3.99854300 3.13345100
F 0.58704500 -4.27721000 1.23762700
F 1.99613200 -2.65633000 1.54037100
F -0.94015500 -1.49318300 2.39262200
F -1.22195100 -2.75201200 0.64730400
F 0.96493300 -1.53915500 -0.53775300
F -0.82687200 -0.38409300 -0.14510400
C 2.34533100 0.67870000 0.47450300
C 2.07430600 1.51530900 -0.80962200
C 3.32427800 1.67706000 -1.71962800
F 4.35812100 2.07813100 -0.99168500
F 3.61973700 0.52890000 -2.30635900
F 3.06890800 2.58431200 -2.64896500
F 1.66406100 2.73111700 -0.44415000
F 1.10712800 0.92420500 -1.52615400
F 2.97219800 1.46778900 1.35207500
F 3.13716500 -0.36112400 0.18978800
F 0.24585300 1.20884700 1.37877600
F 1.43522200 -0.30943600 2.37437000
H -2.29097300 -3.29865800 3.58336900
30
energy = -2625.42758368
C 0.28694900 -0.11523400 -0.01439700
C -0.29315800 -1.54813100 0.32505000
C -0.31001200 -2.61508600 -0.82720100
C 1.05206800 -3.07024900 -1.42260500
C 1.01851600 -4.37402800 -2.29093200
F 2.25005400 -4.52984500 -2.77355200
F 0.70716600 -5.41143800 -1.52348800
S -0.10753600 -4.39377100 -3.79241500
O -0.02822600 -3.09865700 -4.41358300
O 0.17451700 -5.62086500 -4.47101800
O -1.53209000 -4.55944100 -3.09778500
F 1.56177900 -2.08940600 -2.16473000
F 1.87820300 -3.33844400 -0.40211900
F -0.91233500 -3.69229700 -0.30902200
F -1.08689500 -2.13972900 -1.82352200
F -1.58142300 -1.38094900 0.64338800
F 0.33908400 -2.08574500 1.37053900
C 1.73199200 0.14313200 0.50652100
C 2.29783800 1.58043100 0.18185600
C 2.20518300 2.58413400 1.36926900
F 0.96981400 2.62433900 1.84832400
F 3.04090700 2.23598500 2.33417800
F 2.53514600 3.78884800 0.92921400
F 1.64659200 2.11836300 -0.85470800
F 3.58768000 1.45279700 -0.13446500
F 1.74847300 -0.01528500 1.83692400
F 2.53454100 -0.76716100 -0.05169500
F 0.26025600 0.03739500 -1.34359300
F -0.51041700 0.79630300 0.54646900
H -1.92177800 -3.68108100 -2.94023900
30
energy = -2625.43382324
C 0.12560500 0.00390800 -0.04684000
C -0.62261500 0.73795500 1.11394900
C -0.42254700 0.16802300 2.54400400
C -1.05136300 1.01966900 3.70154000
C -2.56016800 1.35490800 3.55281000
F -2.71286100 2.33255100 2.66627800
F -3.24018300 0.27531500 3.16459400
S -3.35447900 1.96535300 5.14528700
O -2.40060700 2.77601500 5.83896600
O -4.66900400 2.41713500 4.77471800
O -3.49529600 0.58997100 5.94182600
F -0.88882300 0.29798900 4.81709300
F -0.37410700 2.16088100 3.80360400
F -0.94296400 -1.06051100 2.59148700
F 0.88731700 0.10494000 2.80991700
F -1.92693400 0.62438400 0.82129200
F -0.28696800 2.03264800 1.10522400
C 1.69030200 0.01333000 -0.12945100
C 2.37756600 1.40079700 0.00214300
C 3.85710800 1.40924900 -0.48515900
F 4.51758300 0.38539900 0.03852600
F 3.90921700 1.33442200 -1.80472500
F 4.42880800 2.53785000 -0.09481600
F 2.36570400 1.76220200 1.28920000
F 1.70160200 2.29958900 -0.72204700
F 2.18232200 -0.80714700 0.80011700
F 1.98526500 -0.48516700 -1.33989100
F -0.23871900 -1.28407000 -0.00662900
F -0.33200600 0.55396900 -1.17633900
H -4.38429900 0.22098900 5.79934600
30
energy = -2625.42936828
C -0.23456600 0.28266900 0.27013200
C -0.58004300 0.96707400 1.62914800
C -0.07233300 0.34925000 2.96937700
C -0.43449100 -1.11854600 3.34964800
C -1.93313300 -1.53253200 3.46636500
F -2.52780500 -1.44339300 2.27720400
F -1.94042400 -2.80146800 3.86679900
S -2.97801900 -0.57411300 4.69699300
O -2.35461800 -0.69942800 5.97866400
O -3.34434400 0.68133200 4.09833200
O -4.25981100 -1.52756500 4.68138700
F 0.11339200 -1.94313300 2.44911000
F 0.13004300 -1.33934800 4.53893100
F 1.26296400 0.42045300 2.97603500
F -0.54980000 1.13585600 3.94320900
F -1.91520400 1.02134600 1.68255300
F -0.09927200 2.21524400 1.59503300
C 1.25006100 0.04545600 -0.13965800
C 2.21782500 1.26274800 -0.26117400
C 1.80934500 2.41116100 -1.22873800
F 1.41684500 1.92039600 -2.39500300
F 0.83178800 3.13607900 -0.70775000
F 2.86215500 3.19141000 -1.42010200
F 3.37372400 0.76002300 -0.71114200
F 2.41376100 1.78733700 0.95222500
F 1.80201300 -0.79733000 0.74104600
F 1.20410900 -0.55345100 -1.33597300
F -0.82867800 -0.91718200 0.25558800
F -0.79149600 1.04571000 -0.68145600
H -4.93613900 -1.14576000 4.09535500
30
energy = -2625.42743534
C -0.15956900 0.31949200 0.05696800
C -0.80764400 0.71010000 -1.32271200
C -0.54735700 -0.23925800 -2.54469100
C 0.64058800 0.21951800 -3.44729800
C 1.23574500 -0.89038200 -4.36594500
F 2.14698300 -0.30760800 -5.15140200
F 1.82090500 -1.81874800 -3.62167000
S 0.01101200 -1.72673600 -5.51221500
O -0.74452700 -2.66695200 -4.74351200
O -0.57411900 -0.69970200 -6.33194200
O 1.05120500 -2.56117500 -6.38975700
F 0.22894200 1.22721300 -4.21245900
F 1.65805200 0.64738500 -2.68002700
F -0.34761000 -1.48698700 -2.11039500
F -1.63805900 -0.22265500 -3.31644900
F -0.46996100 1.95579100 -1.66825700
F -2.12372000 0.68707000 -1.08410700
C 1.36350000 -0.00732200 0.21863600
C 2.35143800 1.21334800 0.12641200
C 2.83192500 1.75713300 1.50410700
F 1.79669200 2.02122700 2.28725300
F 3.62444200 0.87922900 2.09759400
F 3.51190500 2.87594400 1.29879600
F 1.76731100 2.22683600 -0.52301900
F 3.43402900 0.82992000 -0.55322700
F 1.48574400 -0.54958500 1.44028200
F 1.71923900 -0.93153900 -0.67584100
F -0.43641700 1.32805100 0.89562200
F -0.80666100 -0.77837900 0.46527300
H 1.32260800 -2.03837300 -7.16423300
30
energy = -2625.42876647
C 0.39225400 -0.23526700 -0.52510000
C -0.30708600 0.19889600 -1.86765400
C -1.84956200 0.47275700 -1.79957400
C -2.78857000 -0.71892300 -1.39266900
C -3.33404000 -1.52905900 -2.60526700
F -4.29075500 -0.83506100 -3.20632300
F -2.35910800 -1.80210300 -3.47077100
S -4.06213200 -3.17571700 -2.06036600
O -2.97823500 -4.09989900 -1.85796200
O -5.06416100 -2.89186000 -1.07836600
O -4.80469600 -3.56410400 -3.42105100
F -2.12746300 -1.55705300 -0.58135600
F -3.83343200 -0.21571600 -0.74202700
F -2.05253100 1.47394900 -0.94453000
F -2.21134700 0.88088200 -3.02659700
F -0.07324800 -0.74033300 -2.78514400
F 0.22175500 1.35456400 -2.29749800
C 1.87661500 0.26667900 -0.35264700
C 2.11991000 1.60378900 0.41967900
C 1.46378800 2.89647200 -0.12587600
F 1.88914400 3.14867900 -1.35350600
F 0.14102600 2.77212900 -0.13013000
F 1.79373800 3.90783000 0.66137500
F 3.44420000 1.80102100 0.41050700
F 1.71028100 1.43849500 1.68100300
F 2.51168700 -0.66142500 0.37175700
F 2.46187900 0.34105300 -1.55429400
F -0.33575600 0.18103400 0.52082700
F 0.44010900 -1.56734300 -0.51139600
H -4.25983700 -4.20292200 -3.91269600
30
energy = -2625.42803993
C -0.27310900 0.79524900 -0.47194700
C -0.81077200 1.03113900 0.99678100
C -0.51658400 2.46166700 1.55535900
C -0.72486300 2.57269300 3.09593200
C -0.84237900 4.02643700 3.66232800
F -1.93965300 4.60020100 3.18253600
F -0.93956600 3.90968100 4.98511600
S 0.60447500 5.18792200 3.37084900
O 0.28912000 6.38467800 4.08782400
O 1.81509800 4.43483200 3.56250100
O 0.42667500 5.50878200 1.81983600
F -1.87549000 1.96011400 3.40609100
F 0.28428700 1.95891500 3.70939900
F 0.76394200 2.80028000 1.28927400
F -1.31995100 3.32491000 0.93113700
F -0.30327700 0.11338800 1.82650100
F -2.13675300 0.89838500 0.96708600
C 1.00925800 -0.08675400 -0.65468800
C 2.37198000 0.34021000 -0.02294500
C 3.13996900 1.50669200 -0.70919700
F 3.47832900 1.17981000 -1.94408800
F 2.39966900 2.60931100 -0.74062200
F 4.23606300 1.75066200 -0.00926900
F 3.16921600 -0.73064700 -0.09061800
F 2.18458000 0.66259300 1.26228100
F 0.71936700 -1.29676500 -0.16610400
F 1.19444000 -0.18687600 -1.97870500
F -1.22694500 0.13626900 -1.13470000
F -0.08539200 1.97884700 -1.07255000
H 0.96311900 4.88910900 1.29387000
30
energy = -2625.4314609700004
C 0.25543700 0.05745900 -0.08587500
C -0.34280300 0.73698600 1.17457700
C -1.89635000 0.66174900 1.35473400
C -2.63444700 -0.70833900 1.44092400
C -2.20456300 -1.72498600 2.53883800
F -3.02700300 -2.77435300 2.43072500
F -0.95536200 -2.12216800 2.33030700
S -2.35024400 -1.14084800 4.31756800
O -1.20677600 -0.33767500 4.62087900
O -3.71020400 -0.72002400 4.52101300
O -2.13151200 -2.55268100 5.03030100
F -3.92309100 -0.42143300 1.64472200
F -2.51636600 -1.33557200 0.26480300
F -2.16622900 1.32042500 2.49043800
F -2.45309000 1.31378800 0.32901900
F -0.07215400 2.04852800 1.10042500
F 0.24598900 0.22549300 2.25650800
C 1.80659800 0.19801200 -0.26240200
C 2.39009700 1.64011700 -0.33450600
C 3.79516200 1.69622900 -1.00587600
F 4.58091300 0.75792400 -0.49401900
F 3.69481800 1.51850100 -2.31295700
F 4.33287000 2.88397700 -0.77420100
F 2.51765900 2.11048700 0.90916000
F 1.56793200 2.42949600 -1.03397900
F 2.40127000 -0.44633400 0.74389200
F 2.09120300 -0.42832500 -1.41459600
F 0.03007600 -1.26114500 -0.00257000
F -0.34820000 0.53957200 -1.17457600
H -2.98818000 -2.99766100 5.15146800
30
energy = -2625.4320906500006
C 0.12608700 -0.26472800 -0.55318100
C -0.81925500 0.61944700 -1.43021800
C -2.31830900 0.46357500 -1.01312400
C -3.39844500 0.87097700 -2.06661400
C -3.40214800 2.33485300 -2.60123400
F -2.23227100 2.58278200 -3.18806800
F -4.37744400 2.40553700 -3.50332400
S -3.76281700 3.72724100 -1.38528000
O -3.96121300 4.88943400 -2.19506500
O -4.72121600 3.24488300 -0.42838100
O -2.34740600 3.89506000 -0.67783100
F -3.24496300 0.07748500 -3.13288100
F -4.58333200 0.62018700 -1.50891200
F -2.55477500 -0.81564000 -0.71787500
F -2.51507000 1.20400300 0.10006100
F -0.66421300 0.26151200 -2.70464900
F -0.48661800 1.90810300 -1.28489200
C 1.64519700 0.13816600 -0.64616200
C 2.11583100 1.10929500 0.47853200
C 3.49688300 1.76701400 0.18826700
F 4.37671700 0.84152500 -0.16852100
F 3.38555000 2.66189100 -0.77974700
F 3.92296300 2.36984500 1.28697200
F 2.21626900 0.41351300 1.61348000
F 1.22149600 2.09228500 0.64045700
F 2.36862700 -0.97721900 -0.54372400
F 1.87584200 0.69576500 -1.84402500
F -0.27032200 -0.19040100 0.72693500
F 0.01086300 -1.52388700 -0.97263800
H -2.28583200 3.29656000 0.08732800
30
energy = -2625.42872753
C -0.04667300 0.43150600 -0.13892300
C -0.66559500 1.23621400 1.04983900
C -0.49918800 0.62423800 2.47054500
C -1.37736800 1.27202900 3.59282300
C -2.94363600 1.18557100 3.58344200
F -3.33403300 1.51347200 4.81793800
F -3.44701600 2.06274900 2.72466300
S -3.75503200 -0.46282900 3.21093700
O -5.09800700 -0.36982000 3.71574000
O -3.44074900 -0.82231700 1.86211900
O -2.90662400 -1.40613200 4.18202100
F -0.97069200 0.70491400 4.73403500
F -1.08815400 2.57964400 3.62357400
F -0.73230700 -0.68958500 2.44226600
F 0.76476000 0.83232700 2.86012900
F -1.97276000 1.33020800 0.77763100
F -0.13718300 2.46428900 1.05905600
C 1.46912200 0.07722200 -0.11922900
C 2.52620500 1.22323800 -0.08246600
C 2.45721600 2.29069200 -1.21311400
F 2.29619700 1.71194200 -2.39358600
F 1.45672000 3.13063700 -0.99618900
F 3.59223600 2.97331200 -1.21719800
F 3.71789800 0.62117700 -0.17510200
F 2.44883800 1.85680800 1.09181700
F 1.69780400 -0.69813300 0.94969500
F 1.69591100 -0.63794000 -1.22701100
F -0.70359000 -0.72590500 -0.23495700
F -0.27982900 1.15527800 -1.24391600
H -3.38529700 -1.52368800 5.02126500
30
energy = -2625.4320709400004
C 0.15270400 -0.02823600 -0.16535400
C -0.54866300 0.34978800 -1.51206700
C -2.09157600 0.54073800 -1.37794400
C -2.78819400 0.93035000 -2.72364400
C -4.35036300 0.79127400 -2.66848100
F -4.79438100 0.97148800 -1.42841900
F -4.88720700 1.71616800 -3.46456800
S -5.02980000 -0.86141300 -3.25730000
O -4.16786900 -1.91149900 -2.80815700
O -6.44068200 -0.81369800 -2.98114300
O -4.80905100 -0.69995900 -4.83015500
F -2.50487600 2.21197600 -2.97133000
F -2.32883100 0.18672300 -3.73467500
F -2.61780000 -0.59449700 -0.91072900
F -2.33585300 1.53495500 -0.51728600
F -0.31220300 -0.64531200 -2.37071600
F -0.03165800 1.48821400 -1.99107200
C 1.72459400 0.07384000 -0.22350400
C 2.29331800 1.42215700 0.31297800
C 3.78658900 1.64971800 -0.06529300
F 4.49906500 0.56599100 0.21262900
F 3.89921300 1.92792600 -1.35421900
F 4.25746400 2.66868200 0.63719500
F 2.20116000 1.41766300 1.64523300
F 1.58756600 2.44638700 -0.17844500
F 2.22622200 -0.90450300 0.53189700
F 2.13765000 -0.10191600 -1.48776900
F -0.29143000 0.75219100 0.82873700
F -0.16937100 -1.29346000 0.10756700
H -5.61466500 -0.33639500 -5.23702400
30
energy = -2625.43242232
C -0.04753300 0.22761400 0.15857100
C -0.61543600 0.98370300 -1.07829000
C -2.17183500 0.90618100 -1.26195500
C -3.02303100 1.32380200 -0.02941800
C -4.52871600 1.64928500 -0.30532800
F -5.10203800 1.82280400 0.88046400
F -4.60403500 2.77345600 -1.01136500
S -5.54189400 0.37146600 -1.23937600
O -6.90725400 0.60256700 -0.88259400
O -5.05779900 0.36656600 -2.59355200
O -5.08715700 -0.97092700 -0.51066500
F -2.96283800 0.33766400 0.87207500
F -2.49646700 2.43595800 0.49572900
F -2.46957500 1.70058700 -2.28863300
F -2.48835800 -0.36521500 -1.58350000
F -0.08798100 0.45559500 -2.18825800
F -0.27742600 2.27146100 -0.99793300
C 1.48637300 -0.07342700 0.16094900
C 2.49267400 1.10500800 0.00454500
C 2.45562300 2.22646000 1.08088200
F 1.34982700 2.94649200 0.96571000
F 2.51139300 1.70448400 2.29664300
F 3.50153700 3.01720000 0.89919800
F 2.30646000 1.66674600 -1.19602900
F 3.71199800 0.55738500 0.04746600
F 1.73878700 -0.68162900 1.32595400
F 1.74011900 -0.92651600 -0.83644700
F -0.33947000 0.93001200 1.26008800
F -0.65051700 -0.96787200 0.23215000
H -4.30520400 -1.33963000 -0.95995400
30
energy = -2625.4343459800007
C 0.07592400 -0.12985000 -0.05656300
C -0.41767400 -1.61761700 -0.00505700
C -0.09161500 -2.43638600 1.28453600
C -1.07614900 -3.63497400 1.48821100
C -0.50607500 -4.69380400 2.47850200
F 0.42628300 -5.41863400 1.87521400
F 0.01461500 -4.08543900 3.54701100
S -1.79567200 -5.91011200 3.10749300
O -2.68759200 -6.21142400 2.02914900
O -1.06577400 -6.90748500 3.84395100
O -2.58061800 -4.98612400 4.14587600
F -2.22705000 -3.16646900 1.97583700
F -1.28540200 -4.23290000 0.31449700
F 1.14862700 -2.92915600 1.17781600
F -0.16664600 -1.64167700 2.35623200
F 0.09642500 -2.26436200 -1.05277000
F -1.75094600 -1.55370200 -0.13226900
C 1.60934300 0.08136700 0.07694200
C 2.05595800 1.59170600 0.08369200
C 2.29834000 2.18562300 1.50246100
F 1.25935600 1.95087200 2.29094600
F 3.38578800 1.65737800 2.04129700
F 2.46663700 3.49456300 1.39073500
F 1.13020000 2.34329300 -0.52287600
F 3.20375500 1.68797100 -0.59029000
F 2.02752600 -0.49004800 1.21900100
F 2.19685500 -0.53096500 -0.95188600
F -0.30296900 0.32411000 -1.25676600
F -0.54980300 0.56488000 0.89794900
H -2.22028600 -5.12336600 5.03922900
30
energy = -2625.4305986100003
C -0.07334700 0.33289900 -0.13741300
C -0.58344300 0.76611700 1.26056200
C -2.13542100 0.65079200 1.49243100
C -3.16498300 1.09814100 0.39930700
C -3.18782000 2.60444200 -0.03275200
F -1.98579600 3.16447700 0.12634500
F -3.53954900 2.67621700 -1.30835000
S -4.41188000 3.64909500 0.93819300
O -5.72483700 3.36869100 0.44677700
O -4.03506600 3.57971100 2.32491000
O -3.98739400 5.07777200 0.36271100
F -2.96863000 0.35760000 -0.69310700
F -4.37413800 0.80311100 0.89826100
F -2.39559600 -0.64552700 1.69703100
F -2.39697300 1.33592700 2.60805400
F -0.19808000 2.02469600 1.48936500
F -0.01689500 -0.02607000 2.17943300
C 1.47523100 0.14954200 -0.27802900
C 2.35007600 1.35995400 0.15409600
C 3.80917800 1.29556000 -0.38628300
F 4.33161900 0.09975300 -0.15125500
F 3.83026000 1.53467600 -1.68715100
F 4.53503800 2.21426000 0.23233000
F 2.40592300 1.38625400 1.48953900
F 1.79579100 2.49280300 -0.29374400
F 1.83932500 -0.91749100 0.43482700
F 1.70053800 -0.09231800 -1.57777800
F -0.61350800 -0.85499300 -0.43465100
F -0.47631300 1.24296500 -1.03461100
H -3.31545600 5.47812100 0.94112100
30
energy = -2625.42811139
C -0.09879000 0.32893800 0.00754400
C -0.39563300 1.10442600 1.35351200
C -0.38181700 2.67145300 1.34447700
C -1.10526500 3.26302800 2.60490300
C -0.68000900 4.73981600 2.86823100
F 0.49910200 4.76651300 3.47386400
F -0.61567100 5.41571300 1.72055000
S -1.92158000 5.62414100 3.96951500
O -3.03358600 6.03936600 3.15679600
O -2.05017800 4.84392100 5.16305600
O -1.04849000 6.91691000 4.31913000
F -2.42508800 3.23552400 2.40051000
F -0.80135100 2.54395800 3.68457200
F 0.88351000 3.10683600 1.35639100
F -1.00543800 3.14439300 0.26549400
F 0.47572400 0.68803200 2.27884100
F -1.63397000 0.75164900 1.72484900
C 1.36056200 -0.16654800 -0.27588000
C 2.54090200 0.84202100 -0.37190800
C 2.42551600 1.95512600 -1.44777500
F 2.23756300 1.42414400 -2.64472700
F 1.41081800 2.76575600 -1.16884000
F 3.54493300 2.66057800 -1.45448400
F 3.62737800 0.12021400 -0.66888300
F 2.71423500 1.41796900 0.82182200
F 1.68883500 -1.04518300 0.67609000
F 1.29303900 -0.80595900 -1.45183700
F -0.81507700 -0.80013000 0.07313500
F -0.51840700 1.03128000 -1.04970400
H -1.34243200 7.66027600 3.76452700
30
energy = -2625.4312896300007
C 0.28363600 -0.02561100 -0.40671200
C -0.44767800 -1.39748100 -0.43800900
C -2.01223100 -1.34991900 -0.34442800
C -2.79035000 -0.47629500 -1.39690300
C -3.02330600 1.04165200 -1.09474000
F -3.28269200 1.26288200 0.18440800
F -1.96402700 1.75674500 -1.47262700
S -4.48361500 1.69683500 -2.09562200
O -4.24996800 1.33303500 -3.46826600
O -5.68992000 1.41334200 -1.38187800
O -4.19812400 3.25889600 -1.91971000
F -2.15035800 -0.56889000 -2.56573400
F -4.00743700 -1.02537500 -1.50840200
F -2.40142100 -2.61269600 -0.55801200
F -2.35725500 -1.00138700 0.89604200
F -0.04800500 -2.11259600 0.62375300
F -0.10493500 -2.03959600 -1.55398400
C 1.76508800 -0.13583400 0.07031800
C 2.60690700 1.11930200 -0.31251700
C 3.93355700 1.24025900 0.49257400
F 3.68374700 1.57767400 1.74704900
F 4.58244500 0.08341200 0.46951400
F 4.69107000 2.17341500 -0.06233600
F 1.87956900 2.22022300 -0.08281500
F 2.91278200 1.05110000 -1.60965800
F 1.77641900 -0.27751200 1.39954500
F 2.32214200 -1.20931300 -0.49952400
F 0.26720600 0.48781800 -1.64217100
F -0.37717200 0.79148500 0.42680900
H -3.62002900 3.57143600 -2.63683900
30
energy = -2625.4302341000002
C -0.00992800 0.12246100 0.02025600
C -0.62291700 0.86149400 1.24657400
C -2.17657500 0.76376300 1.32746700
C -2.82488800 1.46996100 2.56897900
C -2.55078200 2.99361500 2.74225300
F -1.38526000 3.16080500 3.35084900
F -2.54617500 3.60213300 1.55963400
S -3.87271800 3.87331900 3.76914900
O -3.20950900 4.94590100 4.44496400
O -5.02027500 4.04783500 2.92105100
O -4.19999500 2.76116800 4.86755500
F -4.15369800 1.29411900 2.42890600
F -2.42485200 0.83970100 3.67280000
F -2.70861400 1.28108200 0.21856100
F -2.52697200 -0.52269200 1.42764400
F -0.30003500 2.16004100 1.16206000
F -0.11388500 0.34145100 2.36777700
C 1.55481500 0.01446500 -0.04659100
C 2.38650000 1.34494700 -0.15106100
C 3.01440100 1.82277000 1.19169300
F 2.10774200 1.83236400 2.16076200
F 4.00778100 1.02028400 1.53678700
F 3.48416000 3.04941200 1.03152100
F 1.61775400 2.32539600 -0.63713500
F 3.39892200 1.13435600 -0.99526100
F 1.97968300 -0.68857800 1.01159900
F 1.79455600 -0.69303000 -1.15483400
F -0.44951900 -1.14274500 0.04046200
F -0.43664400 0.71507600 -1.09782900
H -4.93108800 2.19949700 4.55424400
30
energy = -2625.42077831
C 0.05552300 0.13227500 -0.02487300
C -0.55074000 0.43835500 -1.44358000
C -0.21575100 -0.43165900 -2.71220900
C 1.14527700 -0.31231400 -3.50025300
C 1.69724600 1.12642100 -3.68037400
F 0.74136900 1.91909800 -4.16148600
F 2.13627500 1.60012800 -2.51428000
S 3.12824000 1.18635600 -4.89852300
O 4.15156000 0.32309700 -4.39352100
O 2.58758800 1.09981100 -6.22808000
O 3.58477800 2.69538000 -4.63749500
F 2.06715400 -1.07811000 -2.92695900
F 0.90263900 -0.79590800 -4.72613600
F -0.35797400 -1.72092600 -2.39616000
F -1.16321400 -0.08501800 -3.59420000
F -0.37142900 1.72300200 -1.76473800
F -1.86397000 0.23294600 -1.25444500
C 1.56710200 0.34738200 0.30676500
C 2.05482400 1.82783300 0.51474100
C 2.13065600 2.27671600 2.00492400
F 0.99342100 2.01421400 2.63210600
F 3.12635700 1.66166600 2.62146400
F 2.34785100 3.58344500 2.03829200
F 1.24520800 2.67720900 -0.12623700
F 3.28240900 1.93394200 0.00260000
F 1.79657000 -0.32354700 1.44547100
F 2.29253100 -0.21540600 -0.65997100
F -0.64397000 0.88614500 0.83498600
F -0.20084600 -1.15802900 0.21918600
H 3.22472000 3.26616000 -5.33849600
30
energy = -2625.4253692300003
C 0.03548700 0.16577100 -0.24988000
C -0.66076200 0.53126900 1.10749500
C -0.15471700 -0.08062800 2.46407300
C -0.78306600 -1.43610200 2.94080000
C -0.61414000 -2.66131100 2.00072200
F -1.56088200 -2.63811600 1.07517200
F 0.59313800 -2.62853400 1.43671800
S -0.71923300 -4.32118600 2.89967400
O -1.27239900 -5.24907700 1.96191000
O 0.53300900 -4.51732800 3.57779300
O -1.85467300 -4.01278400 3.97892200
F -0.16383300 -1.71987600 4.10507400
F -2.07833500 -1.25128100 3.18486200
F 1.17281400 -0.21400200 2.45243700
F -0.48875900 0.79593800 3.41858100
F -1.94404300 0.16918000 0.95717000
F -0.60296100 1.85954100 1.22904300
C 1.57245200 0.35092500 -0.47658400
C 2.24766500 1.70177100 -0.09364400
C 1.83470400 2.96058900 -0.90747700
F 2.06073300 2.77694100 -2.19792200
F 0.55259500 3.23850400 -0.72324100
F 2.55961400 3.98451400 -0.48241600
F 3.56040300 1.53017100 -0.27906100
F 2.01827700 1.95169700 1.20244800
F 2.21385700 -0.61191700 0.19089200
F 1.76549500 0.15627100 -1.78808200
F -0.21527900 -1.12220100 -0.50982500
F -0.58921300 0.91318700 -1.16934400
H -1.44415100 -3.69329700 4.80196900
30
energy = -2625.43355445
C 0.11076400 0.23879800 -0.06016400
C -0.77654100 -1.04319300 0.05477200
C -0.58766600 -1.98782200 1.27834100
C -0.88657200 -1.42824000 2.70647400
C -2.30351700 -0.82181100 2.93887800
F -2.31961400 0.43089500 2.50917800
F -3.22516100 -1.53893400 2.30266400
S -2.82039600 -0.81901300 4.75877400
O -3.65723000 0.32787800 4.93498500
O -3.21844600 -2.16078100 5.08729100
O -1.43042800 -0.49827400 5.47661800
F -0.73315300 -2.47161600 3.54513400
F 0.02828300 -0.50583400 3.00594300
F -1.38483400 -3.03967100 1.07720600
F 0.68549500 -2.40600900 1.29255500
F -0.57334100 -1.78707400 -1.03498900
F -2.04927500 -0.62009700 0.05986500
C 1.65698200 0.02968300 -0.02326200
C 2.42714800 1.23571100 -0.64462400
C 3.93030900 1.27855700 -0.24118100
F 4.05918700 1.64242200 1.02436400
F 4.47993800 0.08288100 -0.41162400
F 4.55726100 2.15639400 -1.00818600
F 1.85698900 2.37654300 -0.23965000
F 2.35797900 1.14817200 -1.97417000
F 2.03600000 -0.11069400 1.25359800
F 1.97870700 -1.07291400 -0.70550000
F -0.20850500 0.79219300 -1.23806700
F -0.23161800 1.07504800 0.92333900
H -0.97795600 -1.33161500 5.69744100
30
energy = -2625.43396363
C -0.06592500 0.02497700 0.22332500
C -0.85375700 -1.27619700 -0.13707400
C -2.38891900 -1.12182300 0.11666400
C -3.21707500 -2.43385100 0.29762600
C -3.20631500 -3.47646200 -0.85990700
F -1.95021500 -3.86459400 -1.07721200
F -3.92880900 -4.51330600 -0.44460100
S -3.96627000 -2.98311400 -2.51145900
O -4.04371200 -4.19688900 -3.26407600
O -5.09417500 -2.13143600 -2.24687400
O -2.79011000 -2.12103700 -3.14815400
F -2.75111400 -3.06288700 1.38237700
F -4.47679200 -2.05965100 0.52315800
F -2.56873500 -0.41293300 1.23277600
F -2.91484000 -0.43337800 -0.92020000
F -0.37612200 -2.28385800 0.59163500
F -0.66919300 -1.53500500 -1.43922200
C 1.34963300 0.06150900 -0.43683300
C 2.30300500 1.07935300 0.25890300
C 3.54036700 1.45550100 -0.60748200
F 4.10837600 0.35513100 -1.08368600
F 3.17915500 2.23304900 -1.61518700
F 4.41405800 2.10335000 0.14637000
F 2.74086100 0.54305400 1.39943200
F 1.62248200 2.20162900 0.52340300
F 1.89618300 -1.15622900 -0.36228000
F 1.20686700 0.40671300 -1.72160500
F -0.76310800 1.08142500 -0.21096000
F 0.06794900 0.08865700 1.55049800
H -2.87549900 -1.19065300 -2.87491700
30
energy = -2625.4295804000003
C 0.31375800 0.17916600 0.11196600
C -0.95463500 0.61428400 0.91469600
C -1.17698600 2.12242200 1.24311100
C -1.45949300 3.13571700 0.07998900
C -2.60563300 2.76475100 -0.90288700
F -2.16227200 1.88172700 -1.78956300
F -3.65529200 2.27231500 -0.24761200
S -3.20958600 4.27559600 -1.84913700
O -4.10337000 5.01471600 -0.99834800
O -2.07290300 4.84743800 -2.50489300
O -4.08284500 3.51861900 -2.95377200
F -1.79121700 4.28676200 0.68171800
F -0.34951200 3.32077400 -0.62899900
F -2.23289600 2.16691100 2.06240700
F -0.10047300 2.58163700 1.89273200
F -0.96055600 -0.04555000 2.07620900
F -2.01029300 0.20505600 0.19296300
C 1.71895400 0.30055500 0.83703700
C 2.63643300 1.41964700 0.26431500
C 3.93075900 1.66094500 1.09735300
F 3.63225200 2.20014500 2.26855300
F 4.57781800 0.52103800 1.29375300
F 4.71413400 2.49246000 0.42769800
F 1.96324600 2.57418700 0.22820300
F 3.00193600 1.07112000 -0.97229100
F 1.54467900 0.51811300 2.14743500
F 2.35712600 -0.86054200 0.67958800
F 0.12225700 -1.11357700 -0.16245900
F 0.32868700 0.85996100 -1.04305000
H -5.02213600 3.56234200 -2.70407800
30
energy = -2625.4229302700005
C 0.07430900 0.28253100 -0.31886800
C -0.67248500 -1.09190800 -0.30225600
C -2.22877400 -1.00604900 -0.08189400
C -2.86907300 -1.04004900 1.35870900
C -2.80079700 0.22620800 2.29232800
F -2.69250100 1.33762600 1.57400200
F -3.93425100 0.27443300 2.98640500
S -1.46668700 0.22518300 3.63353000
O -1.10441200 1.60144300 3.84536700
O -1.94025000 -0.64241400 4.66829100
O -0.25375300 -0.51256100 2.90939200
F -4.17262600 -1.23071300 1.11727500
F -2.39544200 -2.10091300 2.01731800
F -2.68304600 0.07321400 -0.73236800
F -2.71758200 -2.10379200 -0.67193100
F -0.12520400 -1.90796100 0.60068500
F -0.48989600 -1.61770500 -1.51775700
C 1.61616600 0.14175400 -0.16653000
C 2.45280400 1.44654400 -0.37334700
C 2.36692900 2.14936400 -1.76489200
F 2.27087800 1.24840300 -2.73316700
F 1.31906700 2.95528300 -1.80740300
F 3.46328900 2.86599800 -1.94763000
F 3.72539900 1.09117900 -0.17452400
F 2.08539900 2.32492000 0.56566900
F 1.86166300 -0.23830800 1.10582600
F 2.06046100 -0.80075200 -0.99487200
F -0.19745300 0.88700000 -1.47563100
F -0.35761100 1.06041700 0.69030300
H 0.40723300 0.13814300 2.61367000
30
energy = -2625.432187130001
C 0.46507800 0.10440100 -0.33829600
C 0.00722800 1.04787500 -1.49663700
C -1.54746200 1.13364000 -1.61620300
C -2.04904100 1.74898300 -2.97594100
C -2.38623700 0.67997800 -4.05718700
F -1.43635400 -0.25117400 -4.12705500
F -3.54822300 0.11239300 -3.76114700
S -2.52846500 1.45031800 -5.76643200
O -3.50980200 2.48914400 -5.68277700
O -1.19964000 1.64026900 -6.28406400
O -3.19054300 0.21035100 -6.52710400
F -3.16210600 2.43497500 -2.73047700
F -1.11747200 2.58201300 -3.45924000
F -2.07549900 -0.09264200 -1.48030300
F -1.99108900 1.90923200 -0.62818700
F 0.52208600 0.57717900 -2.63579700
F 0.46694400 2.28543600 -1.28169300
C 1.97842000 0.28459400 0.06525600
C 2.29347300 1.13489500 1.33788600
C 1.88622100 2.63228700 1.33719900
F 2.42248500 3.25355400 0.29812100
F 0.56704700 2.76041900 1.29519700
F 2.33245800 3.19012000 2.45207100
F 3.62432100 1.09663500 1.48215500
F 1.72160500 0.54663900 2.39286800
F 2.46392200 -0.93210300 0.33045100
F 2.65279200 0.79919800 -0.97154300
F -0.31482000 0.30117200 0.73316300
F 0.30112000 -1.14973900 -0.76320000
H -2.50215400 -0.26641600 -7.02250000
30
energy = -2625.4292939399998
C 0.17897900 -0.01056000 0.04086900
C -0.46287600 0.91152300 1.11616300
C -2.02505600 0.81548600 1.16316600
C -2.65973500 1.49310400 2.43934800
C -3.17868800 0.54910200 3.57391700
F -3.66083300 1.34741200 4.53120300
F -4.15910800 -0.20824500 3.09358100
S -1.98905000 -0.60868500 4.44426400
O -2.71383000 -1.13297100 5.56974100
O -1.34805700 -1.43188500 3.46506200
O -0.91496400 0.44791100 4.97269300
F -1.79915700 2.36642500 2.97364000
F -3.74799500 2.15979800 2.03909500
F -2.48317400 1.46260200 0.08927900
F -2.42702700 -0.45680500 1.09683900
F -0.16613900 2.18464600 0.81957200
F 0.06318200 0.60314400 2.30443600
C 1.73895400 0.07274000 -0.08214500
C 2.35644900 1.46821200 -0.39350200
C 3.78906900 1.37884000 -0.99909800
F 4.53208500 0.54381100 -0.28461100
F 3.74045800 0.95986200 -2.25276100
F 4.34256500 2.58190400 -0.97010800
F 2.44320900 2.16022000 0.74685100
F 1.58255200 2.12807200 -1.26195700
F 2.27262200 -0.37642500 1.05572700
F 2.06524400 -0.76175200 -1.08081600
F -0.08752700 -1.28164100 0.35278300
F -0.36365800 0.27646700 -1.14746100
H -1.14253700 0.71717000 5.87988600
30
energy = -2625.42613749
C -0.00988900 0.41883200 -0.25554300
C -0.18199600 0.80946300 -1.75959400
C 0.01204300 -0.40034900 -2.76340800
C 0.79077500 -0.00480700 -4.04697500
C 1.00496100 -1.13236500 -5.11236800
F 1.64755300 -0.56497100 -6.12670900
F 1.76215100 -2.08340700 -4.57101300
S -0.49398700 -2.02131600 -5.83519900
O -0.13951300 -2.36437900 -7.17750000
O -0.92334300 -2.98056000 -4.85397100
O -1.56062100 -0.83941500 -5.92328300
F 0.14930700 1.01896300 -4.62059600
F 2.02045400 0.37554500 -3.68598500
F 0.64712700 -1.41420400 -2.17633400
F -1.21760300 -0.81960900 -3.12263300
F 0.66990500 1.80302300 -2.04601800
F -1.42430800 1.27094600 -1.91076200
C 1.48804800 0.25519900 0.20721600
C 2.10370700 1.41588000 1.05365400
C 2.24617300 2.80614100 0.37371400
F 2.92869000 2.69478700 -0.75616400
F 1.05879000 3.33432300 0.11410000
F 2.89936700 3.61045000 1.19761000
F 3.34129400 1.01610300 1.37149800
F 1.38998800 1.55993600 2.17333300
F 1.55613800 -0.83179800 0.97776000
F 2.27223500 0.07339100 -0.86749200
F -0.60104500 1.37124600 0.47378800
F -0.66401300 -0.72763500 -0.05073000
H -2.07278200 -0.79833800 -5.09623800
30
energy = -2625.4297834600006
C 0.15913800 0.11741800 -0.16080800
C -0.42126400 -1.30482300 0.14176600
C -1.96887700 -1.26380300 0.38854900
C -2.75745600 -2.59148100 0.14937600
C -2.36206500 -3.84756100 0.98299300
F -3.13754000 -4.84227100 0.56027700
F -1.08547200 -4.14272500 0.74210400
S -2.61267400 -3.79186300 2.84947500
O -3.78721600 -3.00766600 3.11933000
O -2.43727300 -5.14110000 3.29071500
O -1.32068400 -2.98509900 3.30941800
F -4.04152200 -2.31683900 0.38067600
F -2.61095300 -2.92449800 -1.13805400
F -2.17095300 -0.88030000 1.66896900
F -2.52207700 -0.35456400 -0.41431100
F 0.14539300 -1.80320600 1.24723100
F -0.14469600 -2.09897800 -0.89273800
C 1.71718600 0.19403700 -0.11251100
C 2.29437500 1.64280300 -0.34329500
C 2.65980800 2.40040000 0.96737600
F 1.64268300 2.37416000 1.81843400
F 3.72102700 1.85166300 1.53549200
F 2.93547200 3.65983300 0.66620100
F 1.41071700 2.38962300 -1.01487000
F 3.40964900 1.53188500 -1.06668300
F 2.15760000 -0.24636500 1.07403000
F 2.18247800 -0.60822700 -1.07232800
F -0.23181100 0.45302900 -1.39239600
F -0.34764200 0.97899900 0.73170100
H -1.50267100 -2.02905100 3.28621200
30
energy = -2625.43435472
C 0.08114700 0.01168000 -0.32863400
C -0.67742400 -1.34076000 -0.09541700
C -0.34811900 -2.48532000 -1.09328800
C -1.07669200 -3.85066100 -0.78293500
C -0.19948800 -4.85279000 0.02556400
F 0.71403500 -5.38534400 -0.77535000
F 0.39592900 -4.24649300 1.05137900
S -1.23578600 -6.25039300 0.74044100
O -1.88428500 -5.76614700 1.92966900
O -1.92612200 -6.86731100 -0.35135400
O -0.04444500 -7.22162900 1.17948800
F -2.20392600 -3.62526500 -0.09605800
F -1.37911900 -4.42420300 -1.94428000
F -0.71331200 -2.08185000 -2.30984500
F 0.97626700 -2.71044500 -1.08933100
F -1.97597700 -1.04597200 -0.22563900
F -0.44231300 -1.75770300 1.15164900
C 1.64209800 -0.02694400 -0.27257900
C 2.25984400 1.36204700 0.07539400
C 3.77657400 1.46629600 -0.26408000
F 4.42254600 0.40723800 0.20713100
F 3.95658100 1.54132300 -1.57241200
F 4.26813000 2.55833000 0.30086100
F 2.11726700 1.58192800 1.38396800
F 1.61739300 2.31220900 -0.61445300
F 2.03809700 -0.90938700 0.65055700
F 2.09971500 -0.40207000 -1.47374900
F -0.28399300 0.49380000 -1.51819700
F -0.35671300 0.83342300 0.63617900
H 0.11189400 -7.12462900 2.13488300
30
energy = -2625.4282048100004
C 0.40960400 0.37329900 -0.55617900
C -0.53760800 -0.86496600 -0.38873100
C -0.35091700 -2.01824800 -1.43726700
C -1.26024600 -1.94235300 -2.71858100
C -2.61606300 -2.72021400 -2.68099600
F -3.22651400 -2.48634600 -3.84705300
F -2.36911500 -4.01995000 -2.56881700
S -3.85305900 -2.26082300 -1.35298300
O -3.31550000 -2.68435600 -0.09554700
O -4.31965600 -0.92868000 -1.62788000
O -5.00111200 -3.29575900 -1.75226300
F -1.50350900 -0.67141400 -3.04277900
F -0.57501400 -2.51572700 -3.71610700
F 0.92271900 -1.98782300 -1.85704500
F -0.56820200 -3.18695200 -0.83332800
F -1.78700900 -0.38449000 -0.48149300
F -0.36661700 -1.36715100 0.83146700
C 1.95246000 0.12711600 -0.34085500
C 2.65333900 1.30033400 0.40737300
C 4.20899200 1.22172900 0.36312400
F 4.61981400 0.01090400 0.71540600
F 4.65355600 1.49648100 -0.85253900
F 4.70487900 2.10933500 1.21217800
F 2.27888700 1.28682900 1.68846800
F 2.29102200 2.45657500 -0.16198300
F 2.14110300 -0.99505900 0.36283700
F 2.54207300 0.00036200 -1.53418900
F 0.22968400 0.88458400 -1.77604200
F -0.01783400 1.25880200 0.35492700
H -5.64097300 -2.85935800 -2.34129600
30
energy = -2625.43545224
C 0.21495700 0.15773500 -0.21537400
C -0.18115600 -1.32016500 -0.53697900
C -1.68886600 -1.60631900 -0.25225200
C -2.04559600 -3.13842800 -0.19232700
C -2.03897000 -3.72497000 1.25058300
F -0.96656800 -3.32297300 1.93048100
F -3.13964600 -3.33771400 1.88219900
S -2.00552400 -5.60452600 1.22781900
O -3.13062200 -6.03703900 0.45557000
O -0.65216900 -6.02595200 0.98206800
O -2.33924600 -5.86391500 2.76915800
F -3.27263300 -3.29517000 -0.68159400
F -1.18028600 -3.82633600 -0.94975500
F -2.03300900 -1.03718100 0.91401600
F -2.40504700 -1.05724200 -1.23201200
F 0.57583200 -2.12518400 0.21363800
F 0.05049400 -1.56678500 -1.82992500
C 1.53630300 0.58532600 -0.92071600
C 2.22544800 1.86388000 -0.34698900
C 1.34451700 3.14081100 -0.27625800
F 0.72796000 3.33922300 -1.43243900
F 0.43935500 3.01889100 0.68525800
F 2.11462100 4.18338900 -0.00988500
F 3.25907000 2.12843800 -1.15394500
F 2.68225200 1.59923000 0.87976600
F 2.42248300 -0.41257300 -0.80080700
F 1.27932700 0.79595800 -2.21376800
F -0.76002000 0.97793900 -0.62981100
F 0.35944300 0.27361000 1.10821200
H -1.51453900 -6.05929000 3.24701400
30
energy = -2625.4315477299997
C 0.25842100 0.07230800 -0.39240600
C -0.62861900 -1.10771200 0.11366200
C -2.17660500 -0.87827400 -0.11452300
C -3.03227600 -0.46681800 1.13556600
C -2.69987400 0.89544000 1.80201800
F -1.53299800 0.83053500 2.43208800
F -2.66690400 1.86272900 0.88379500
S -3.96547600 1.42709100 3.09545100
O -4.45206900 0.26321900 3.77078100
O -3.36980100 2.55109200 3.76722400
O -5.13662100 1.95822700 2.15107000
F -4.29633500 -0.39204900 0.69638600
F -2.93607000 -1.43043300 2.04920500
F -2.37028600 0.03595900 -1.07314400
F -2.69204300 -2.04116300 -0.52056400
F -0.41190500 -1.32407800 1.41576300
F -0.26044000 -2.19348500 -0.56973600
C 1.77970900 -0.08272500 -0.07234900
C 2.59645700 1.21229400 -0.38052300
C 4.13291200 0.96650300 -0.45004100
F 4.53323100 0.26610200 0.60250400
F 4.44559600 0.31085000 -1.55616500
F 4.75311300 2.13631700 -0.45284700
F 2.36158300 2.09664700 0.59214600
F 2.21144800 1.72999900 -1.55212800
F 1.94792700 -0.36557600 1.22194400
F 2.25766200 -1.09132300 -0.81139900
F 0.12631700 0.13831700 -1.71984100
F -0.18042900 1.21168400 0.16371500
H -5.02928300 2.91373600 2.00241400
30
energy = -2625.4294077000004
C 0.24268900 0.12049200 -0.01452700
C -0.26747900 0.72345200 1.32415300
C -1.81854400 0.76181500 1.52732800
C -2.65238700 -0.55057000 1.44191700
C -2.33349900 -1.72380400 2.41699500
F -3.22738600 -2.67678600 2.16667600
F -1.10908700 -2.19616100 2.18532000
S -2.44694100 -1.33985100 4.25108300
O -1.25128700 -0.63906400 4.63633300
O -3.77244100 -0.86942300 4.51295000
O -2.34428500 -2.83908200 4.79329200
F -3.92272000 -0.19858300 1.65195900
F -2.53734100 -1.04141200 0.20070200
F -2.02499000 1.28882000 2.74119200
F -2.32827200 1.58444500 0.60541300
F 0.12515700 2.00296600 1.38740500
F 0.28316000 0.04560600 2.33277700
C 1.76755900 0.30066400 -0.31614300
C 2.37296300 1.71671600 -0.59339200
C 1.60472100 2.61863200 -1.59763600
F 1.29030800 1.92621600 -2.68373900
F 0.49821600 3.09211200 -1.04324800
F 2.37881200 3.63576800 -1.94075800
F 3.58893100 1.49389000 -1.10874500
F 2.51181400 2.37986400 0.55552800
F 2.44949000 -0.21164500 0.71584700
F 1.99932700 -0.43832000 -1.40764800
F 0.04532700 -1.20325400 0.03376500
F -0.45800900 0.62836700 -1.03516400
H -1.42914800 -3.01777300 5.07129900
30
energy = -2625.4366670100003
C 0.05864600 -0.15017400 -0.00426000
C -0.55675400 -1.56931200 -0.18884400
C -2.12215300 -1.62856800 -0.16257700
C -2.85255900 -0.68557500 -1.16740100
C -4.34453000 -1.08400800 -1.37216100
F -4.42028000 -2.14725200 -2.16105400
F -4.91466800 -1.35217300 -0.19563600
S -5.37631300 0.25716100 -2.19539300
O -4.56251900 0.90672200 -3.17753700
O -6.64696500 -0.35201800 -2.48530400
O -5.56367800 1.26677900 -0.97336700
F -2.80017400 0.56148400 -0.68595000
F -2.24265900 -0.74004000 -2.35119800
F -2.45405500 -2.89329300 -0.45814400
F -2.53898200 -1.34484800 1.07307700
F -0.13698400 -2.34939000 0.81621800
F -0.13680200 -2.07856700 -1.34747700
C 1.57403400 -0.18490900 0.35789300
C 2.34656600 1.15630400 0.14808400
C 1.76409400 2.40266800 0.86779400
F 0.63273400 2.77918600 0.28805900
F 1.53058900 2.12867200 2.14351200
F 2.63675700 3.39430100 0.78900000
F 2.41376500 1.41827300 -1.15936200
F 3.58182900 0.95590900 0.62143700
F 1.69440200 -0.54101900 1.63902600
F 2.18072700 -1.09642400 -0.41364900
F -0.11230100 0.52757500 -1.14531800
F -0.58605300 0.47776900 0.98829400
H -6.40647700 1.08073200 -0.52402200
30
energy = -2625.4226904399998
C -0.12329400 0.47675100 -0.08693200
C -0.66398700 1.15447800 1.21413300
C -0.42043900 0.54936400 2.64322200
C -0.79364900 -0.94109900 2.97664300
C -2.21700500 -1.25842000 3.54554200
F -2.23485600 -2.57248600 3.76283700
F -2.39646500 -0.62012800 4.70141200
S -3.72057800 -0.93341800 2.47747700
O -3.33514500 -1.11500200 1.11064300
O -4.80376200 -1.64104100 3.10387100
O -3.92322700 0.62882500 2.72841100
F -0.58399900 -1.72502600 1.92019700
F 0.03304500 -1.31717700 3.96265200
F 0.88077700 0.68988100 2.90582600
F -1.11216400 1.33650000 3.48325000
F -1.98013600 1.28657900 1.03836800
F -0.11612100 2.37838900 1.26764100
C 1.38226900 0.09097600 -0.16881700
C 2.46255900 1.21660600 -0.11236100
C 2.34902100 2.37108900 -1.15179700
F 2.05193100 1.89365300 -2.35141000
F 1.42060500 3.23866200 -0.78117600
F 3.51478800 2.99733000 -1.21286200
F 3.63249800 0.60195900 -0.32503500
F 2.47240000 1.75864700 1.10895600
F 1.65381800 -0.75453900 0.83683500
F 1.54013500 -0.55447400 -1.32875400
F -0.82612300 -0.62944900 -0.32263300
F -0.36811100 1.35018900 -1.07748000
H -4.52601500 0.76102000 3.48101300
30
energy = -2625.4231437500002
C 0.34631900 -0.05603300 0.15068900
C -0.23294100 1.21808000 0.87058800
C 0.18637000 2.60440600 0.25492800
C -0.79005600 3.09599800 -0.85704100
C -0.23647700 4.19676100 -1.82097200
F 0.71858800 3.67808800 -2.58407100
F -1.26154900 4.58074300 -2.58413900
S 0.47468900 5.76157800 -1.06989400
O 1.61879800 5.39731200 -0.29187200
O 0.50794100 6.73211800 -2.13014800
O -0.69743700 6.14823600 -0.05673800
F -1.11216300 2.05981500 -1.64568000
F -1.89720300 3.56811600 -0.28255400
F 0.16492500 3.50181800 1.24112100
F 1.42164300 2.52929100 -0.25143300
F 0.15836200 1.18769000 2.15181900
F -1.56816800 1.15212000 0.84972400
C 1.54081600 -0.80001300 0.84433500
C 2.93003700 -0.09773600 1.02339100
C 3.14724800 0.89186700 2.21056500
F 2.55505800 2.05520000 1.98507200
F 2.69075100 0.38159000 3.34295700
F 4.44932200 1.10431000 2.32753500
F 3.23649700 0.53866300 -0.11248200
F 3.80665200 -1.09064600 1.22287000
F 1.12251700 -1.26455100 2.02531400
F 1.78177800 -1.84237900 0.03499300
F -0.63780600 -0.96178500 0.11905900
F 0.69788500 0.22984000 -1.10661900
H -1.29896400 6.78582500 -0.47957500
30
energy = -2625.42372492
C 0.02858800 0.28141200 -0.00283500
C -0.44321700 1.12300100 1.24968200
C -0.49829000 2.68713700 1.13574400
C -1.39646600 3.33856900 2.25459200
C -2.92167700 3.49683400 1.90117400
F -3.31840800 2.61320800 0.99230300
F -3.63543800 3.33016400 3.01240400
S -3.34103900 5.21061000 1.24890700
O -3.34956100 6.12265300 2.36135100
O -2.58454200 5.41568100 0.05098700
O -4.85577700 4.92532500 0.82453100
F -1.29723700 2.62095800 3.37637300
F -0.90836100 4.56197200 2.49321100
F 0.73477100 3.16554900 1.30583600
F -0.95719700 3.07744000 -0.05395900
F 0.35158600 0.81775100 2.28176500
F -1.68937600 0.71325300 1.52888900
C 1.53238200 -0.15175100 -0.09624500
C 2.67228500 0.90649000 -0.11023300
C 2.63003000 1.96160100 -1.24742400
F 2.62223200 1.36515700 -2.42858100
F 1.54408200 2.71750300 -1.13583200
F 3.70018200 2.73366300 -1.15533300
F 3.81469500 0.22383500 -0.24885300
F 2.68558900 1.54237900 1.06492000
F 1.78604400 -0.96795100 0.93172000
F 1.62783500 -0.84778900 -1.23752500
F -0.63610600 -0.87941900 0.06644200
F -0.31045100 0.88940100 -1.14284600
H -5.44976800 5.25186900 1.52240400
30
energy = -2625.4272737300003
C 0.23778400 0.04391100 0.07850300
C -0.39542500 -1.39777300 0.11768300
C -1.95688800 -1.49560300 0.02217100
C -2.78812500 -0.77538900 1.14967300
C -3.45142000 -1.67157000 2.25012400
F -4.16348000 -0.83990400 3.01108100
F -4.26435800 -2.54699400 1.66979100
S -2.35508500 -2.58300600 3.47519300
O -1.27919300 -1.69534700 3.82740500
O -3.25520100 -3.15817400 4.42635100
O -1.78531300 -3.77709500 2.59415500
F -2.01418700 0.13390900 1.75279400
F -3.80597000 -0.14871200 0.55466700
F -2.31759100 -1.00799300 -1.16155300
F -2.23184000 -2.81059000 0.04133400
F -0.00324300 -2.00496600 1.25701700
F 0.06022500 -2.11393800 -0.91433100
C 1.55641100 0.10047300 -0.74812600
C 2.41214300 1.39686800 -0.56483700
C 1.67400500 2.74665900 -0.77694200
F 0.97360800 2.71515100 -1.90227800
F 0.85720000 2.98273500 0.24030600
F 2.56558600 3.72099800 -0.84673300
F 3.39516100 1.32337000 -1.46900500
F 2.94073000 1.39681500 0.66044500
F 2.33458900 -0.91968500 -0.35878500
F 1.26036100 -0.02742900 -2.04283600
F -0.64486100 0.88542100 -0.47867100
F 0.50956500 0.43703000 1.32132700
H -0.94681000 -3.50748300 2.17710400
30
energy = -2625.4290181600004
C 0.21990300 -0.12839100 0.31627700
C -0.62910500 0.66793200 1.35207300
C -2.18143300 0.41991000 1.22000800
C -2.92611200 1.51094000 0.39322300
C -4.37916000 1.15432500 -0.06405400
F -4.85466400 2.23425500 -0.68110300
F -4.33777000 0.13576800 -0.91521300
S -5.63798700 0.75252200 1.27034900
O -5.44129400 1.67887800 2.35312900
O -6.88175600 0.57957000 0.58549100
O -5.14639100 -0.69456600 1.72356900
F -2.97332500 2.62881800 1.11500600
F -2.23211600 1.73400300 -0.73085700
F -2.40504100 -0.78485700 0.68537200
F -2.69969700 0.42679100 2.46471200
F -0.39271400 1.97905800 1.22681100
F -0.24979100 0.27590900 2.56877200
C 1.74386500 0.21977300 0.25975300
C 2.22832900 1.62242200 -0.23749800
C 1.57407400 2.15873800 -1.53913200
F 1.57891100 1.21681200 -2.47164000
F 0.32437800 2.53608200 -1.30271400
F 2.26154000 3.20272400 -1.97102000
F 3.53970600 1.49255100 -0.47138300
F 2.05342000 2.52535400 0.72930200
F 2.24011400 0.05617600 1.49233600
F 2.28281700 -0.68962200 -0.55963500
F 0.15691700 -1.41806900 0.66706600
F -0.29907600 0.01410300 -0.90860500
H -4.54252900 -0.61090800 2.48296800
30
energy = -2625.4313625
C 0.03582200 0.02848700 0.15148900
C -0.55408000 0.63910800 1.45117600
C -2.11747500 0.76051700 1.49939200
C -2.91799400 -0.54284500 1.22538700
C -4.41443800 -0.53988400 1.67582000
F -4.93468600 -1.69889400 1.28058400
F -4.48483900 -0.45275800 3.00422800
S -5.54083600 0.78387800 0.97300100
O -5.20184200 0.98670400 -0.40205300
O -6.86117600 0.44754500 1.43190800
O -5.02181600 2.05399600 1.78920000
F -2.88320300 -0.80156000 -0.08208000
F -2.34074200 -1.54859400 1.89846400
F -2.40963400 1.18840800 2.73686400
F -2.49137300 1.68412400 0.61298000
F -0.09772100 1.89189100 1.58398700
F -0.14664800 -0.08766500 2.49279800
C 1.59151300 0.07570300 -0.00080000
C 2.34431300 1.43896000 -0.14420900
C 1.78184400 2.44449100 -1.18588100
F 1.53685100 1.82562600 -2.33200700
F 0.66415800 2.99789600 -0.73838500
F 2.67807100 3.39695800 -1.38959300
F 3.58859600 1.12450900 -0.52627100
F 2.40220000 2.04426300 1.04402200
F 2.12090500 -0.54031000 1.06355200
F 1.86182600 -0.63584300 -1.10118600
F -0.28290500 -1.27281500 0.13760200
F -0.52047900 0.62651300 -0.90866000
H -5.53222000 2.14653500 2.61261800
30
energy = -2625.42700301
C 0.28160200 0.21735300 -0.00023600
C -0.47464300 0.51963700 -1.34373300
C -0.35435400 1.95827900 -1.91054100
C -1.06065000 2.25973900 -3.27859800
C -2.63010100 2.16516000 -3.34169400
F -3.16533300 2.19527600 -2.11975400
F -3.09367100 3.19027800 -4.04166700
S -3.23785200 0.60462000 -4.20262600
O -3.17200800 0.83401700 -5.61262600
O -2.63734400 -0.52387100 -3.54226700
O -4.77568200 0.69003000 -3.78172000
F -0.73223200 3.52333400 -3.56111100
F -0.54285000 1.46037500 -4.21828000
F -0.81789900 2.82469600 -1.00488500
F 0.94562100 2.20311100 -2.13740000
F -1.76745100 0.29250500 -1.06673300
F -0.05811800 -0.34600800 -2.26705200
C 1.84783200 0.37209600 0.02678500
C 2.39294900 1.74335800 0.56871700
C 2.69023700 1.74804500 2.09914400
F 1.67295400 1.23126000 2.77544700
F 3.78500400 1.05193500 2.35747300
F 2.87512500 2.99941600 2.49195000
F 1.52031100 2.72740300 0.31974400
F 3.53719800 2.01080300 -0.06326600
F 2.33431700 -0.59287000 0.81959300
F 2.32605000 0.17582600 -1.20462300
F -0.26647600 0.95947800 0.96920400
F 0.01592700 -1.06963400 0.24819900
H -4.91694200 0.20445600 -2.95059400
30
energy = -2625.43478336
C -0.07449200 0.14697400 -0.01323800
C -0.74493500 -1.24127300 0.19104900
C -2.31202400 -1.24961000 0.16120600
C -3.01049100 -0.74025900 -1.13994800
C -4.45345000 -1.31192000 -1.28212100
F -4.40008500 -2.56315700 -1.73718200
F -5.07853900 -1.27967100 -0.11126200
S -5.46764800 -0.32003200 -2.51748900
O -6.01384200 0.81868600 -1.84659200
O -4.69075800 -0.24958700 -3.72692400
O -6.66520600 -1.35546100 -2.72958700
F -3.09974700 0.59284800 -1.09032800
F -2.30361300 -1.10928700 -2.20808600
F -2.66685100 -2.53179300 0.34187400
F -2.75252300 -0.52115400 1.18784100
F -0.41257700 -1.69893800 1.40354500
F -0.28890200 -2.08580500 -0.73893900
C 1.48535900 0.07374200 -0.08104500
C 2.18966600 1.47381700 0.04008300
C 2.65356100 1.83990300 1.48050600
F 1.67102600 1.66119000 2.35182000
F 3.68551800 1.08718500 1.82813800
F 3.02110800 3.11186900 1.50015300
F 1.35995100 2.43002100 -0.39405400
F 3.27676900 1.45935000 -0.73409700
F 1.94489200 -0.72594200 0.89218500
F 1.81010000 -0.45496000 -1.26189100
F -0.50134100 0.65701600 -1.17523600
F -0.45282900 0.94385000 0.99076800
H -6.44981700 -1.96541000 -3.45620600
30
energy = -2625.43092086
C -0.04064600 0.17340500 -0.08094600
C -0.80554100 0.56659500 -1.38417800
C -2.32006800 0.87628700 -1.16374700
C -3.05366900 1.41156500 -2.45606600
C -3.17161400 2.96352600 -2.49918900
F -4.11886100 3.35734700 -1.64757800
F -2.01661700 3.53682400 -2.18799800
S -3.67544600 3.56830800 -4.20834200
O -2.49887000 3.67114400 -5.01493900
O -4.84947300 2.82654300 -4.58552700
O -4.10510200 5.05581100 -3.81666600
F -2.40576900 1.00851200 -3.55650700
F -4.28556300 0.90860000 -2.46292300
F -2.91075100 -0.25895200 -0.78895500
F -2.47787800 1.78630200 -0.19236800
F -0.73378600 -0.47078100 -2.22310500
F -0.21507000 1.63538300 -1.93298700
C 1.51578300 -0.00604400 -0.29215500
C 2.44757100 1.14762300 0.20354700
C 2.29814300 2.53819500 -0.47108600
F 2.39457500 2.42097100 -1.78668000
F 1.13264000 3.09040500 -0.16424300
F 3.26910600 3.32506400 -0.03347000
F 3.69734500 0.73349700 -0.04249900
F 2.29002000 1.29713600 1.52162600
F 1.88592500 -1.08370800 0.40579900
F 1.77819800 -0.22061100 -1.58746000
F -0.24892400 1.09080300 0.87137100
F -0.54505300 -0.99155400 0.33134300
H -5.04978500 5.07664500 -3.58537400
30
energy = -2625.4260085600004
C 0.31106600 0.19412900 -0.19350100
C -0.57529500 0.80482600 -1.33668600
C -0.61485200 0.04694600 -2.71658900
C 0.68635500 -0.35964200 -3.48534000
C 1.48647300 0.80743700 -4.17317100
F 1.16751500 1.98100700 -3.63271200
F 2.78403100 0.58524900 -4.01591200
S 1.16749800 1.00419200 -6.01728700
O -0.25595600 1.00555000 -6.22028200
O 2.03226200 2.06024400 -6.44515800
O 1.78445000 -0.35578400 -6.57504800
F 1.50062300 -1.03654000 -2.67685000
F 0.28098600 -1.21411600 -4.45022600
F -1.27051900 -1.09860300 -2.49315500
F -1.33569400 0.81161600 -3.54271000
F -0.24292300 2.08449000 -1.52383600
F -1.84181400 0.76274500 -0.90751000
C 1.77918600 0.75014400 -0.12707300
C 1.97795800 2.02839200 0.76304600
C 2.36900900 1.72078400 2.24049300
F 1.57733900 0.79195600 2.75825600
F 3.62291100 1.30117900 2.29625400
F 2.25283700 2.83129300 2.95123400
F 0.86416800 2.76752800 0.76049500
F 2.97194300 2.74523800 0.23368100
F 2.56709700 -0.22023400 0.34661400
F 2.18568900 1.05247500 -1.37082700
F -0.29425300 0.44317100 0.97157100
F 0.36866900 -1.13193400 -0.35468800
H 1.09870700 -1.04601900 -6.57589600
30
energy = -2625.42884061
C 0.38726300 -0.11661400 0.20817500
C -0.31771800 0.79809300 1.27079200
C -0.26299600 0.37281700 2.77923700
C 1.14791100 0.20260000 3.41426100
C 1.10396800 0.31014200 4.97066400
F 1.04815100 1.59044400 5.31971000
F 0.04149100 -0.33876800 5.43938100
S 2.59877400 -0.43771400 5.83839300
O 2.69436200 0.21423000 7.11727400
O 2.53721200 -1.85737900 5.67458000
O 3.76757600 0.11580400 4.89883500
F 1.63231300 -0.99074000 3.06909300
F 1.94698300 1.17261400 2.95071700
F -0.89424800 1.35348800 3.44480500
F -0.94137500 -0.76361500 2.92712600
F -1.62140300 0.79299700 0.97049300
F 0.13815500 2.05143400 1.16604200
C 1.88814500 0.13456900 -0.17576900
C 2.27975600 1.57445900 -0.63341100
C 3.51958300 1.59032900 -1.57756300
F 4.47630400 0.81951700 -1.07665400
F 3.19518900 1.16133300 -2.78539500
F 3.97108200 2.83208900 -1.67079100
F 2.59118800 2.29845100 0.44519100
F 1.25773600 2.14496300 -1.28047200
F 2.67456400 -0.20641900 0.84559100
F 2.12360400 -0.70679300 -1.19480300
F 0.31887200 -1.38306000 0.64282500
F -0.31104300 -0.00780400 -0.92506100
H 4.16200500 0.90843600 5.30272000
30
energy = -2625.42986589
C 0.27103600 0.02811700 0.32838900
C -0.62395200 0.73013800 -0.74008500
C -0.62897100 0.22546000 -2.21682000
C -0.99609400 -1.25459100 -2.53954900
C -2.39450800 -1.79457300 -2.11232000
F -2.47822300 -3.04039800 -2.59436300
F -2.48449200 -1.82989800 -0.78919300
S -3.89260000 -0.88605000 -2.78851900
O -4.14089500 0.25523100 -1.96386500
O -3.74753600 -0.83449700 -4.21842800
O -4.99724500 -1.97677900 -2.41633100
F -0.90716400 -1.37780600 -3.86588000
F -0.09139000 -2.05948100 -1.96915900
F -1.51212300 0.99700700 -2.86625000
F 0.58582900 0.43655800 -2.73297000
F -0.26456000 2.01796500 -0.79458400
F -1.87611700 0.64997600 -0.27949000
C 1.81033100 -0.08635500 0.11614000
C 2.65958500 1.21130700 -0.04781700
C 2.57819500 2.26745500 1.09274800
F 1.43896800 2.93775300 1.02653700
F 2.67333300 1.68127100 2.27709500
F 3.58241300 3.11895200 0.94928100
F 2.32873000 1.80657400 -1.19764800
F 3.93212700 0.80270800 -0.11852300
F 2.27700300 -0.74019400 1.18670900
F 2.03380200 -0.83230900 -0.97249800
F 0.07824200 0.70093800 1.47199900
F -0.18443900 -1.22069200 0.48571500
H -5.08831900 -2.61693400 -3.14327200
30
energy = -2625.43035002
C -0.08485800 0.33917500 -0.15119900
C -0.58579300 0.80196000 1.24148000
C -2.13011200 0.66226800 1.50754100
C -3.18698400 1.08092000 0.42981500
C -3.25515500 2.58302300 -0.00488900
F -2.05182200 3.14479200 0.04569900
F -3.71088700 2.63537200 -1.25671800
S -4.40004100 3.68592600 1.00145100
O -4.27022200 3.35871200 2.38797600
O -4.20223000 5.00960400 0.47378000
O -5.81643100 3.14549800 0.50342700
F -2.97377900 0.35101300 -0.66975100
F -4.38157400 0.74371000 0.93194900
F -2.36527200 -0.63600900 1.73104900
F -2.37626300 1.35410800 2.62174100
F -0.22452600 2.07374400 1.42756500
F 0.01139800 0.04753300 2.17357400
C 1.46415000 0.15822400 -0.29547200
C 2.33486400 1.37612700 0.12217000
C 3.79918400 1.30201600 -0.40198800
F 4.32131900 0.11275400 -0.13396500
F 3.83276800 1.50982500 -1.70809700
F 4.51780300 2.23598900 0.20157100
F 2.37712800 1.42687400 1.45755200
F 1.78391800 2.49881200 -0.35301400
F 1.83411500 -0.90136000 0.42569300
F 1.68627200 -0.09564200 -1.59364800
F -0.62143700 -0.85740300 -0.42112600
F -0.49393000 1.22771100 -1.06584300
H -6.13054800 3.69333200 -0.23690000
30
energy = -2625.42824199
C 0.23642600 0.00361400 0.05164300
C -0.51907500 0.62456700 1.27776400
C -0.37271800 2.15335400 1.51633500
C -1.35063200 2.70977800 2.62636500
C -2.59942100 3.50717800 2.12803400
F -3.25569300 3.90135500 3.22660900
F -2.20195100 4.57605400 1.44971500
S -3.87290600 2.59127500 1.09896800
O -3.36967700 2.44517300 -0.23184200
O -4.36300300 1.50371700 1.90246400
O -4.98052700 3.74093500 1.05581900
F -1.77295800 1.71972800 3.41605700
F -0.66085800 3.58561100 3.36521100
F 0.87910200 2.39401300 1.91348300
F -0.60518700 2.80725800 0.37333000
F -0.12265000 -0.02207900 2.37707700
F -1.82002200 0.37548800 1.06441500
C 1.81404700 0.04936800 0.05930800
C 2.42254000 1.17188300 -0.83219000
C 3.94610300 1.39396600 -0.59952400
F 4.15781500 1.94953000 0.58303100
F 4.59385800 0.23891000 -0.66218700
F 4.40841900 2.20055500 -1.54265800
F 1.80146000 2.33184000 -0.58538700
F 2.24618900 0.83616300 -2.11186200
F 2.26109200 0.19604900 1.31456900
F 2.25631500 -1.11629500 -0.41720000
F -0.11805000 -1.28532700 0.05681000
F -0.21733300 0.56936300 -1.07128900
H -5.58415900 3.64283800 1.81249900
30
energy = -2625.4320768000002
C 0.14111200 0.02184000 -0.09964700
C -0.51057500 0.67398000 -1.35994800
C -0.09494400 0.08051200 -2.74592900
C -1.13122200 0.40011000 -3.86584000
C -0.63673300 0.13824300 -5.32528200
F -0.21154800 -1.12029500 -5.41147400
F -1.68884900 0.31378200 -6.11749500
S 0.70527300 1.27139400 -6.02956500
O 0.54314500 1.20481400 -7.44926200
O 0.70114800 2.49984400 -5.28125500
O 2.02307100 0.44814900 -5.68012400
F -2.18088100 -0.40924800 -3.68524100
F -1.52770800 1.66808400 -3.75508100
F 1.09462400 0.62117100 -3.08687700
F 0.04747100 -1.24078300 -2.65933400
F -0.22129000 1.97825800 -1.35052300
F -1.83149800 0.51298700 -1.21813500
C 1.69591300 0.05928500 0.02024400
C 2.36831200 1.46651300 0.02298900
C 3.80377200 1.45327600 0.62879500
F 3.75252900 1.31001200 1.94185900
F 4.50634000 0.45697900 0.10388100
F 4.39952400 2.59987400 0.34206200
F 1.62865400 2.32624300 0.72755400
F 2.46449500 1.89502200 -1.24042500
F 1.99280100 -0.55137300 1.17441200
F 2.20694300 -0.65257100 -0.99380900
F -0.37862400 0.64515200 0.96179400
F -0.21544700 -1.26599700 -0.05944000
H 2.35380300 0.71619800 -4.80581700
30
energy = -2625.4292711
C 0.19643900 0.73134600 0.18179700
C 0.54100200 0.73165400 1.71661000
C 0.84891000 -0.69643600 2.28151100
C 1.59616900 -0.66154300 3.64672400
C 1.70505100 -2.03415300 4.38641600
F 2.28773800 -2.91024800 3.57114200
F 2.47390400 -1.82822400 5.45078800
S 0.12285200 -2.81475600 5.06354200
O 0.55703500 -3.71578400 6.08621500
O -0.84054400 -1.76821900 5.27708800
O -0.33281400 -3.71069000 3.82808700
F 2.85597900 -0.27826800 3.40826100
F 1.00673000 0.22702900 4.44670000
F -0.33556700 -1.32327700 2.45142500
F 1.57847500 -1.39477600 1.41146100
F -0.51989700 1.20344100 2.36910500
F 1.58668400 1.53489900 1.95009900
C 1.42305400 0.86680700 -0.79700200
C 1.74407400 2.28949700 -1.36135900
C 2.11994500 3.40057500 -0.34543700
F 1.10077600 3.65824800 0.46488700
F 3.16777500 3.02771300 0.37306800
F 2.42188100 4.50191900 -1.01361800
F 0.70256600 2.71294200 -2.08190100
F 2.79924200 2.12996300 -2.16994300
F 2.52902900 0.39302800 -0.20929900
F 1.15210000 0.11529400 -1.86858500
F -0.42831100 -0.42256600 -0.08918500
F -0.65819100 1.73085100 -0.04987300
H -0.90231300 -3.18961400 3.23628400
30
energy = -2625.4275555900003
C 0.26596700 0.25563700 -0.04128600
C -0.42390300 0.56637400 -1.40761100
C -1.98684300 0.47914200 -1.36618800
C -2.76054300 1.13533200 -2.55735600
C -2.49284300 0.62514100 -4.00534000
F -3.25500700 1.36182200 -4.80997500
F -1.21016800 0.82129500 -4.30481500
S -2.94004500 -1.15847100 -4.41509100
O -4.12032800 -1.49993500 -3.66816800
O -2.84357300 -1.25152600 -5.83906300
O -1.69121500 -1.94160900 -3.81669400
F -4.05748200 0.98121400 -2.29017100
F -2.46963600 2.44168300 -2.55491500
F -2.31773900 -0.83117500 -1.31636700
F -2.45032900 1.07060700 -0.26686400
F -0.01016100 -0.35654100 -2.28562200
F -0.04792400 1.77956000 -1.82007700
C 1.84134800 0.38963400 -0.08366300
C 2.46480200 1.66589100 0.57120800
C 2.10519600 3.04312600 -0.05161600
F 2.34903800 3.03219800 -1.35391600
F 0.82822300 3.33638100 0.14984800
F 2.85147000 3.97297300 0.52243200
F 3.79024800 1.52216900 0.44847100
F 2.14636600 1.68902900 1.86790200
F 2.34129200 -0.64397000 0.59870000
F 2.27528500 0.32332000 -1.34804900
F -0.20632000 1.05901900 0.91624600
F -0.04735500 -1.00783900 0.26432100
H -1.84867500 -2.14631100 -2.87795700
30
energy = -2625.432214430001
C 0.47249900 0.08219300 0.45388800
C -0.39366100 0.79236400 1.56438500
C -0.37131300 0.16274500 3.00149400
C 0.98632800 0.16097900 3.76060200
C 0.84013300 -0.28517800 5.24964500
F 0.36110500 0.72073900 5.96821500
F 0.03325800 -1.33964600 5.35867200
S 2.50097200 -0.78471700 5.97853100
O 2.80217800 -2.12007300 5.53607200
O 3.38523700 0.32954900 5.81860900
O 2.06960000 -0.85197600 7.51605100
F 1.83479100 -0.67390600 3.14669100
F 1.48658700 1.39593900 3.76063800
F -1.22374100 0.89347100 3.73664500
F -0.83245600 -1.08683000 2.91560900
F -1.67064700 0.70459100 1.17679400
F -0.06428400 2.08419800 1.65952600
C 1.88069200 0.71343000 0.16680000
C 1.85628700 1.84102000 -0.91125400
C 3.13678800 2.72614600 -0.90024000
F 3.14000100 3.52030800 0.15770900
F 4.21833400 1.95864600 -0.87660500
F 3.15687800 3.46836500 -1.99659000
F 0.80013800 2.63917000 -0.71569900
F 1.75985600 1.26897000 -2.11350800
F 2.39790600 1.19719200 1.30568700
F 2.67392000 -0.25928700 -0.28417900
F 0.65927100 -1.19406400 0.80591400
F -0.22246000 0.10387200 -0.68942300
H 1.90957600 -1.77919600 7.76365600
30
energy = -2625.4265121900007
C -0.16684200 0.84342000 0.19178000
C -0.82175800 0.86891000 -1.23643200
C -0.13841700 1.76970700 -2.31272200
C -0.92448600 1.82799900 -3.65917400
C -0.14438000 2.47508400 -4.84986200
F 0.86901900 1.69520600 -5.20073000
F -1.00770500 2.56819700 -5.86737900
S 0.51396900 4.20753300 -4.56690400
O -0.60055100 5.02820100 -4.17533600
O 1.73538500 4.10468700 -3.82963900
O 0.90674200 4.55296100 -6.07520100
F -1.22573700 0.58512400 -4.05605300
F -2.04907200 2.51855900 -3.47898400
F -0.07593100 3.02140200 -1.84310300
F 1.09703200 1.32362200 -2.55959200
F -2.06126400 1.34845300 -1.06757100
F -0.90134000 -0.39069600 -1.67664400
C 1.17234400 0.00197400 0.33748600
C 2.40346700 0.75537100 0.93708100
C 3.12146700 1.76056500 -0.00764200
F 3.69634600 1.11070800 -1.00643900
F 2.26490800 2.64288400 -0.50374300
F 4.04907000 2.40393200 0.68367400
F 3.30417800 -0.18210700 1.25517300
F 2.02984900 1.39005200 2.05210500
F 0.92089500 -1.01439800 1.16457300
F 1.54337500 -0.50367700 -0.84707300
F 0.01826500 2.10325000 0.60021000
F -1.08146200 0.27929100 0.98436000
H 0.14941400 4.96366200 -6.52724900
30
energy = -2625.4318919
C -0.08976300 0.24285100 0.34070800
C -0.13733000 -1.28349700 -0.01805200
C 0.38701700 -1.72812100 -1.43853100
C 1.82822700 -2.32676900 -1.42834700
C 2.42977500 -2.42614700 -2.86335600
F 1.51709400 -2.87400600 -3.72548400
F 2.86138100 -1.23253400 -3.24666900
S 3.88083600 -3.62025800 -2.91856000
O 4.82755900 -3.17389700 -1.94186100
O 3.36028500 -4.95991300 -2.98095800
O 4.44758200 -3.23576400 -4.36286300
F 2.63534700 -1.55561200 -0.69876700
F 1.77720500 -3.55105800 -0.89673100
F -0.43209000 -2.67775900 -1.89276000
F 0.35968000 -0.69255900 -2.28898600
F -1.43500600 -1.60045400 0.03440300
F 0.51069300 -1.97864300 0.92398700
C 1.30874400 0.91473700 0.43468700
C 1.27320500 2.37998500 1.01450100
C 1.62472700 2.48450500 2.52851900
F 0.90197200 1.63462400 3.24275900
F 2.91031800 2.23319300 2.71721600
F 1.36433500 3.71808900 2.93610300
F 0.06086500 2.91601400 0.83235400
F 2.17213600 3.10928000 0.34977700
F 2.10197000 0.16857400 1.21601200
F 1.82665100 0.96597200 -0.79575500
F -0.82388800 0.89378000 -0.56643000
F -0.67495600 0.34796800 1.54157800
H 4.15095200 -3.89884200 -5.01015000
30
energy = -2625.4304441900003
C 0.13826300 0.06879600 0.08282100
C -0.68806500 0.71968100 1.22312800
C -2.24788200 0.57435000 1.15002900
C -2.86983700 -0.87277600 1.21645300
C -3.28943100 -1.43366400 -0.17688800
F -4.42033800 -0.85211200 -0.55366300
F -2.34850800 -1.21517000 -1.09594500
S -3.57622900 -3.29001200 -0.11252900
O -2.29513200 -3.94227600 -0.16471200
O -4.55631100 -3.53168400 0.90203600
O -4.28750600 -3.46559600 -1.53280300
F -2.01239000 -1.71978700 1.79796000
F -3.97565100 -0.80686500 1.95420700
F -2.70127000 1.24772200 2.21019400
F -2.68402400 1.18141900 0.03759100
F -0.45964300 2.03995500 1.19221200
F -0.27694700 0.22981400 2.39490100
C 1.69105300 0.24357100 0.15156500
C 2.33390700 1.66302200 0.05313000
C 1.91344200 2.54792700 -1.15400300
F 1.95759200 1.84361300 -2.27628500
F 0.68813500 3.02109500 -0.98387400
F 2.75404200 3.56624200 -1.24772700
F 3.65205900 1.45286600 -0.05275200
F 2.09464300 2.33702500 1.18087200
F 2.11551300 -0.28693200 1.30348100
F 2.17418000 -0.47742900 -0.86758400
F -0.07270200 -1.25287000 0.11769600
F -0.28653000 0.55113100 -1.09286100
H -3.63749200 -3.79182300 -2.17910100
30
energy = -2625.43021992
C 0.18529500 -0.00700400 -0.21807200
C -0.56994700 -1.35688400 -0.07775200
C -2.13501100 -1.29724800 -0.30472600
C -2.77760100 -0.30697800 -1.33140300
C -2.38176400 -0.51683300 -2.83742600
F -2.05690900 0.64441700 -3.38132800
F -1.34742400 -1.35951800 -2.93858300
S -3.76928500 -1.26983400 -3.85391900
O -4.05914800 -2.55795100 -3.28253600
O -4.74658700 -0.25517800 -4.09982300
O -2.96003800 -1.48467700 -5.21459500
F -4.10283900 -0.48036800 -1.21872600
F -2.49207600 0.94283100 -0.96786500
F -2.51824100 -2.53099700 -0.64613000
F -2.68042900 -0.97148600 0.87179600
F -0.40274100 -1.82076200 1.16443200
F -0.02634600 -2.22559600 -0.93430200
C 1.73214300 -0.11786400 -0.01559800
C 2.39423700 1.27167300 0.24083900
C 3.93551300 1.27029900 0.02109300
F 4.48427300 0.24425600 0.65813500
F 4.21785000 1.18569100 -1.26885600
F 4.43942600 2.39697000 0.49975600
F 2.15518000 1.62630600 1.50523200
F 1.85979600 2.17861000 -0.58565500
F 2.00160700 -0.90642300 1.02750500
F 2.25781500 -0.65662800 -1.12206500
F -0.02084100 0.45575900 -1.46220700
F -0.31820700 0.85460300 0.67184000
H -2.58029300 -2.38015500 -5.23074000
30
energy = -2625.4344456800004
C 0.09774300 0.00485600 0.04139100
C -0.52377300 -1.41736000 0.25665000
C -0.32142500 -2.43387600 -0.89636600
C -1.05420300 -3.81047500 -0.73163600
C -2.60272800 -3.76928000 -0.57296600
F -2.91887900 -3.53373900 0.69437700
F -3.13286400 -2.83038400 -1.35763500
S -3.44118900 -5.39672000 -1.01029800
O -2.60071100 -6.46643200 -0.56535000
O -4.81514300 -5.24246300 -0.61257400
O -3.36817400 -5.34390700 -2.60402100
F -0.76379900 -4.50264200 -1.84032400
F -0.54502500 -4.43035700 0.33134400
F -0.71426100 -1.87029100 -2.04290300
F 0.98165500 -2.73075400 -0.97199800
F -1.84250900 -1.20972800 0.40103300
F -0.03529600 -1.93791500 1.38284500
C 1.61033700 0.05120500 -0.30783900
C 2.31100200 1.43355100 -0.10856800
C 1.65817200 2.64468100 -0.82895500
F 1.42264700 2.35174800 -2.09996100
F 0.51693000 2.96833800 -0.23671100
F 2.48137200 3.67890800 -0.76674900
F 3.55121200 1.29580000 -0.59126200
F 2.37566500 1.70549000 1.19673400
F 2.26050800 -0.81965500 0.47385500
F 1.75438800 -0.30368000 -1.58943100
F -0.57724300 0.60955600 -0.94235100
F -0.10276200 0.66796600 1.18725100
H -4.20629400 -4.99507400 -2.95427000
30
energy = -2625.43611323
C 0.09602500 0.04238200 -0.16841800
C -0.61997100 -1.34559600 -0.13134300
C -2.13660600 -1.21746400 0.22764400
C -2.94877400 -2.48038000 -0.18805800
C -4.34862900 -2.65338600 0.48224500
F -4.89911500 -3.74193900 -0.04884900
F -4.20171400 -2.82694200 1.79604600
S -5.60275900 -1.28135000 0.23965600
O -5.50216100 -0.80702000 -1.10639800
O -6.82133500 -1.76249500 0.83165300
O -4.97626100 -0.16125200 1.18936200
F -3.12028100 -2.47227100 -1.50777100
F -2.23958000 -3.56443000 0.16444400
F -2.24144700 -1.04228400 1.55013300
F -2.64662200 -0.15751800 -0.40677700
F -0.02951600 -2.11185700 0.79201900
F -0.50171900 -1.92060000 -1.33144300
C 1.64804400 -0.08712900 -0.05426600
C 2.39054500 1.19167600 -0.54733700
C 3.86489500 1.27755200 -0.05505400
F 3.90618800 1.56187800 1.23652800
F 4.48159700 0.12245500 -0.26985500
F 4.48930400 2.23270500 -0.72630300
F 1.74111700 2.27471900 -0.10284700
F 2.39902900 1.19305700 -1.88174200
F 1.96215400 -0.30658000 1.22744300
F 2.05436600 -1.12446900 -0.79450100
F -0.20614500 0.64746600 -1.32083700
F -0.34503700 0.78185900 0.85540100
H -5.33639100 -0.25224500 2.08887300
30
energy = -2625.43279344
C 0.06955700 -0.00692300 -0.02452000
C -0.52483500 0.72752500 -1.27012800
C -0.12400000 0.17758100 -2.67075100
C -1.04797200 0.63650400 -3.85339300
C -1.24697500 2.17466700 -3.97548500
F -2.10755700 2.57426700 -3.04152300
F -0.08439700 2.80148800 -3.81994400
S -1.92109500 2.75033600 -5.63732200
O -2.53490400 4.02893100 -5.39721600
O -0.90724600 2.52697200 -6.62074600
O -3.07374300 1.67041100 -5.87487200
F -0.47401500 0.18632800 -4.97217600
F -2.24286100 0.06020500 -3.70664900
F 1.12291200 0.56260000 -2.94870900
F -0.18137400 -1.15852200 -2.64882800
F -0.17922200 2.01915000 -1.21221800
F -1.85532900 0.62859800 -1.14123800
C 1.61140400 -0.17149300 0.10458000
C 2.50985800 1.10076500 0.17968300
C 2.19719600 2.12470300 1.30970900
F 1.12840200 2.84193800 0.99771400
F 1.98687100 1.50237800 2.46012300
F 3.23320400 2.93842100 1.44077100
F 2.45410000 1.74452600 -0.99038100
F 3.75581000 0.65538000 0.37542900
F 1.81752400 -0.87654700 1.22236700
F 2.03735300 -0.88908400 -0.94377700
F -0.36133600 0.66723500 1.05166900
F -0.44733300 -1.23867300 0.00598700
H -3.92703200 2.03170100 -5.57763800
30
energy = -2625.4300262200004
C 0.57087100 0.39003100 -0.08707400
C -0.78444200 0.83682900 -0.74480100
C -0.88569600 2.35840200 -1.14988200
C -1.63000000 3.31990300 -0.15740900
C -0.98998800 3.50864600 1.24223200
F -1.07325300 2.38028100 1.93981000
F 0.28699900 3.87269500 1.11536900
S -1.81798100 4.84118200 2.28760100
O -3.22761600 4.81466300 2.04442900
O -1.22862900 4.71511100 3.59362500
O -1.23673300 6.15146700 1.58692400
F -1.63850000 4.52056400 -0.75208000
F -2.88106000 2.88917300 -0.01133300
F 0.33353800 2.85898200 -1.38354100
F -1.59509800 2.41529000 -2.28037600
F -1.76616400 0.55345100 0.11716200
F -0.96873200 0.10227600 -1.84697900
C 1.65400500 -0.05863800 -1.12069900
C 3.10096300 -0.15573700 -0.51944900
C 3.96847800 1.12368500 -0.70438500
F 4.32478000 1.24906200 -1.97287100
F 3.30202300 2.20739800 -0.33125100
F 5.05786800 1.01125900 0.04022800
F 3.73880800 -1.15577100 -1.13146700
F 3.01837400 -0.42977400 0.78822800
F 1.31104300 -1.26975900 -1.56063500
F 1.67312500 0.79043600 -2.15935900
F 1.04356300 1.39001500 0.67121700
F 0.31292300 -0.65638100 0.69806800
H -0.42044200 6.42969300 2.03738000
