6
energy = -724.0468920730001
F -0.04755500 -0.18140500 -0.08664300
S 1.49552900 0.01519300 -0.02403600
O 1.88752400 -0.36449800 1.28057500
O 2.02316000 -0.53503800 -1.20652500
O 1.53917100 1.56852300 -0.16292100
H 1.45446200 1.99256200 0.70211000
6
energy = -724.0468733370001
F 0.09323500 0.18920000 0.09974900
S 1.62700300 -0.03358800 -0.04754800
O 2.07064700 -0.54342400 1.19482800
O 1.82799700 -0.66880900 -1.28674300
O 2.06645900 1.45565600 -0.20206300
H 2.21338300 1.86184400 0.66319900
6
energy = -724.0468549090001
F 0.00000000 0.00000000 0.00000000
S 1.55677700 0.00000000 0.00000000
O 1.96276500 -0.49410800 1.25309800
O 1.95010600 -0.54843300 -1.24262600
O 1.79065000 1.54256400 0.00000000
H 1.79573500 1.88861700 -0.90303700
