8
energy = -861.8590992950001
C 1.85683500 -0.58784400 1.76894700
F 3.13025500 -0.53371300 2.05956100
F 1.35221100 -1.75925000 2.02760300
S 1.45240700 0.03428300 0.10136200
O 2.31128400 -0.57278500 -0.86358700
O 0.04022700 0.01785800 0.00284600
O 1.91298200 1.52820300 0.29439800
H 2.77799000 1.66623100 -0.11502900
8
energy = -861.859107298
C 1.92281600 -0.42894000 1.63711600
F 3.21688000 -0.31249000 1.78186000
F 1.48869500 -1.57296800 2.08049300
S 1.32685500 -0.01682000 -0.03820700
O 2.10232900 -0.71498300 -1.01220500
O -0.08656800 -0.07623700 0.01691800
O 1.75271800 1.49942600 -0.06909100
H 2.56635000 1.60706800 -0.58032800
8
energy = -861.8587084260001
C 1.93022200 -0.48605400 1.68731800
F 3.21856800 -0.47688100 1.88449300
F 1.38594500 -1.59764900 2.09396200
S 1.42194000 -0.00012300 0.00018100
O 2.20516500 -0.70173800 -0.95289000
O -0.00086200 0.00185300 -0.00051200
O 1.94560900 1.48455200 0.00044800
H 1.26293800 2.08335800 0.33275800
