8
energy = -886.548828473
C -0.11669000 -0.05373100 -0.05546300
F -0.54770600 0.63597200 -1.08434100
F -0.69649400 0.38249000 1.04857100
F -0.41900200 -1.32822600 -0.22521300
S 1.76316300 0.06142600 0.11460700
O 2.27569000 -0.35838000 -1.17367400
O 1.65076400 1.68353100 0.15959900
H 2.40855100 2.05238700 0.62717200
8
energy = -886.5488238390001
C 0.02851000 0.03493500 -0.01803900
F -0.43975100 0.72004700 -1.03369800
F -0.37872100 0.58059700 1.11403700
F -0.41980300 -1.20577400 -0.08292000
S 1.91748400 -0.04598800 -0.05144100
O 2.24020800 -0.57715500 -1.35999400
O 1.97778300 1.57917000 -0.08731100
H 2.81559400 1.88494400 0.27805300
8
energy = -886.5519507450001
C 0.00000000 0.00000000 0.00000000
F -0.45083200 0.76929800 -0.97880600
F -0.45535400 0.45836900 1.15173700
F -0.43470600 -1.22930700 -0.18198400
S 1.89841100 0.00000000 0.00000000
O 2.22618800 -0.51422200 -1.31787800
O 2.01636800 1.60329200 0.00000000
H 1.66609300 1.97715800 -0.82380700
