9
energy = -961.621212623
C 0.77297600 -1.71028100 0.08374700
F 0.26356300 -2.27620000 -0.92891000
F 0.01596000 0.00793200 0.05101400
F 0.31707100 -2.21348600 1.15415900
S 1.86014700 -0.03076300 -0.00242300
O 2.39287300 -0.22017000 1.31019200
O 2.41244000 -0.35720500 -1.27174100
O 1.75644600 1.55032800 -0.13822900
H 1.52565400 1.93433300 0.71708500
9
energy = -961.6212056779999
C 0.76436800 -1.64567900 0.10269400
F 0.09916100 -2.14385400 -0.85341900
F 0.24519500 0.16043500 0.10278900
F 0.33876100 -2.07594700 1.21631200
S 2.05616000 -0.13125400 -0.10523900
O 2.66918800 -0.38233500 1.16123400
O 2.44858100 -0.53904800 -1.41014300
O 2.15658600 1.44812700 -0.26177400
H 2.05211800 1.86651500 0.60212500
9
energy = -961.6211846000001
C 0.77038900 -1.68729500 0.09113900
F 0.26795600 -2.26379500 -0.91959400
F 0.07602000 0.05711000 -0.00742100
F 0.27027400 -2.14448400 1.16152600
S 1.91854500 -0.04992600 0.00441200
O 2.49579100 -0.28866300 1.28213700
O 2.40580700 -0.37066900 -1.30028600
O 1.87688800 1.53987200 0.00742000
H 1.62923600 1.85914600 -0.86952900
