9
energy = -961.6456571460001
C -0.12255200 -0.10600500 0.05671000
F -0.91279400 0.37808200 -0.83854400
F -0.29004100 0.57658400 1.15533900
F -0.27033700 -1.36688200 0.24675600
S 2.04951600 0.11753300 -0.09126600
O 3.42451700 -0.31345500 -0.09843000
O 1.31292900 -0.28309600 -1.33796800
O 2.08807000 1.72991200 -0.14045600
H 2.94697400 2.01725300 -0.48265800
9
energy = -961.645724437
C -0.09824700 -0.08451900 -0.03252400
F -0.73186100 0.56282700 -0.94901700
F -0.41740200 0.43259700 1.12140900
F -0.30023300 -1.35179600 -0.06431600
S 2.07521200 0.05986800 0.17950800
O 3.42465000 -0.42879000 0.30887200
O 1.52987600 -0.11191900 -1.20994500
O 2.15796100 1.65742800 0.39080100
H 3.06643800 1.95244800 0.23281500
9
energy = -961.6457034050002
C 0.00011300 -0.00002400 -0.00000100
F -0.67256300 0.58579700 -0.92977100
F -0.17083600 0.66980400 1.10595500
F -0.28943800 -1.24253800 0.14131200
S 2.18911200 0.00006600 0.00018900
O 3.51053800 -0.57034400 0.07012200
O 1.50113500 -0.29582800 -1.30248600
O 2.39450000 1.60054200 -0.00156200
H 3.29916600 1.80486900 -0.27943100
