9
energy = -961.7689690799999
C -0.76618000 1.09174100 -0.57888200
F -2.02554500 0.70635300 -0.60160400
F -0.34665900 1.26103700 -1.81605400
F -0.70948000 2.26986100 0.03794300
S 1.61963500 -0.04667500 -0.01134800
O 1.94086500 -0.46328000 -1.33907600
O -0.05091500 0.15878800 0.10073800
O 2.04023100 1.50836100 0.00556800
H 1.88562100 1.91111000 0.87104100
9
energy = -961.7738477500001
C -0.61308500 1.03125900 -0.65875000
F -1.79586300 1.19001400 -0.10358800
F -0.78220400 0.69372400 -1.92097500
F 0.01902100 2.20881200 -0.63458900
S 1.72478800 -0.14472200 -0.12390300
O 2.05078500 0.16873000 -1.48926600
O 0.06052200 0.08775100 0.04118900
O 2.22385300 1.07017500 0.77711400
H 2.17930300 1.90868500 0.29028500
9
energy = -961.7746910930001
C -0.91122200 1.16973900 -0.36049300
F -1.98292700 0.76434500 -1.00510100
F -0.66624200 2.43158500 -0.69500600
F -1.16600100 1.15121300 0.94367000
S 1.63461000 0.60698000 0.03694400
O 2.22354500 -0.69314200 -0.10179900
O 0.11377900 0.34988800 -0.68205700
O 2.23219000 1.54300800 -1.10057700
H 2.42777100 1.03438400 -1.90373200
9
energy = -961.7703628920001
C -0.69978900 -1.01301800 -0.60626600
F -1.96854600 -0.73777200 -0.81323300
F -0.59924100 -1.69335500 0.53568200
F -0.26955100 -1.81239600 -1.57458400
S 1.70424200 0.05392700 -0.51070100
O 2.16327800 0.36307900 -1.82567000
O -0.00958800 0.14484000 -0.55480800
O 1.81793900 1.43875300 0.27995900
H 1.44882900 1.37350900 1.17120000
9
energy = -961.7743474010001
C -0.66133700 -0.94829200 -0.60060500
F -1.88394700 -0.47985900 -0.71995800
F -0.62423500 -1.77309600 0.44094400
F -0.37054500 -1.66876100 -1.67917900
S 1.86201000 -0.21907200 -0.49527900
O 2.27467400 0.30164700 -1.76682400
O 0.18282300 0.09233500 -0.44450600
O 2.19176300 0.86525500 0.61407900
H 2.09591200 1.76454100 0.26209900
9
energy = -961.774265314
C -0.69450500 -1.08093200 -0.61247700
F -1.96294200 -0.77280400 -0.77010500
F -0.56684300 -1.78730500 0.50611400
F -0.31552300 -1.86651400 -1.61529100
S 1.72543600 -0.05072600 -0.61384800
O 2.06552900 0.33415900 -1.95341700
O 0.02102800 0.06191700 -0.56555300
O 1.92354200 1.20881500 0.32890200
H 1.70978100 2.03166000 -0.13922100
9
energy = -961.7705832100002
C -0.69095800 -0.08127100 1.14501900
F -1.98023400 0.00770500 0.91966600
F -0.32252900 0.96969600 1.90051800
F -0.45859700 -1.16629300 1.87295300
S 1.67798300 -0.00659600 0.01014000
O 2.03137700 -0.43181600 -1.30393600
O -0.03471700 -0.09746500 -0.02574300
O 1.78321300 1.58970300 -0.04615600
H 1.58203400 1.98295000 0.81499900
9
energy = -961.7743031940001
C -0.66559000 -0.05571900 1.15878000
F -1.88626900 0.25753500 0.78320000
F -0.50911800 0.30191200 2.42962000
F -0.52520100 -1.37514800 1.10463000
S 1.86771800 0.20613900 0.49180900
O 2.11404200 -0.73129300 -0.56595800
O 0.20644200 0.58288800 0.35054500
O 2.31462800 1.64426900 -0.00281900
H 2.15046500 1.75316500 -0.95315600
9
energy = -961.7747473050001
C -0.65595500 -0.06266800 1.17907800
F -1.94800100 -0.02574100 0.93873400
F -0.34242400 0.95047100 1.97893500
F -0.37757100 -1.18295100 1.83683700
S 1.69982000 -0.00436800 -0.00348500
O 1.96984400 -0.47826900 -1.32978300
O -0.00178700 0.00000800 -0.00158700
O 1.89947900 1.57257300 0.00537100
H 1.66209800 1.95826300 -0.85311800
