9
energy = -961.750905542
C 0.06129500 0.04463600 -0.00016200
F -0.28981000 0.74260800 -1.06427300
F -0.40358100 0.63088600 1.07856500
F -0.42547000 -1.17157700 -0.09170300
S 1.92310100 -0.05980800 0.07698300
O 2.25979800 -0.60468900 1.33909000
O 2.35795900 -0.60084400 -1.16472200
O 2.26313400 1.47678300 0.11947500
H 2.42258400 1.81476400 -0.77278700
9
energy = -961.7509581590001
C -0.07077800 -0.06249800 0.06240600
F -0.56994900 0.61601600 -0.95404700
F -0.54043900 0.42732900 1.18620000
F -0.40521200 -1.32777500 -0.04688700
S 1.79072000 0.06872200 0.03172500
O 2.26748900 -0.46137500 1.25428100
O 2.21482300 -0.38094100 -1.24960000
O 1.93775200 1.63448500 0.10530600
H 1.99888600 2.01233300 -0.78313300
9
energy = -961.7509371730001
C 0.00000000 0.00000000 0.00000000
F -0.45206300 0.57964800 -1.08777200
F -0.43343800 0.65740300 1.05951500
F -0.42114600 -1.24287200 0.05104300
S 1.86627100 0.00000000 0.00000000
O 2.27920200 -0.54144500 1.24905400
O 2.28454700 -0.49981300 -1.25630900
O 2.12110300 1.55360900 0.00000000
H 2.22499000 1.88097300 0.90434700
