9
energy = -961.5573271350002
C 0.04266200 0.01614200 -0.00978400
F -0.23354100 0.60553600 -1.18909800
F -0.56191100 0.72953500 0.92312300
F -0.46251900 -1.19992300 -0.03343600
S 2.09107900 -0.09497700 0.00114100
O 1.88590700 -0.38950200 1.48109400
O 3.49363400 -0.32002900 0.67536300
O 2.23049700 1.48903500 -0.18410800
H 1.48647900 1.85382000 -0.68257300
9
energy = -961.557843126
C 0.00250700 -0.02293400 -0.03188700
F -0.35237100 0.38905900 -1.24085400
F -0.54075700 0.81561500 0.85360400
F -0.48800200 -1.23059800 0.15566000
S 2.03654900 0.02033000 -0.02590500
O 1.89423800 -0.54026100 1.38707500
O 3.47559500 -0.26637200 0.55891200
O 2.01263400 1.61212900 0.06530500
H 1.40305100 1.93273100 0.74533500
9
energy = -961.5599088410002
C 0.01509500 0.01561800 -0.00129500
F -0.31487100 0.53887700 -1.17481900
F -0.55485800 0.73008300 0.94684400
F -0.44191000 -1.22496800 0.04116300
S 2.02850600 -0.04284400 0.00488000
O 1.89505400 -0.53107300 1.44437600
O 3.48234200 -0.27778700 0.62103100
O 2.01459200 1.55626900 -0.00178700
H 2.86949100 1.88672800 0.30241300
