9
energy = -961.643436534
C -0.80009400 1.90692700 -1.65344100
F -1.26295400 0.70881900 -1.90282400
F 0.27255900 2.14286000 -2.37657600
F -1.73061900 2.80103100 -1.96005300
S -0.43946500 2.14363700 0.20819900
O 1.08809800 0.18856700 -0.31991300
O -1.34811400 1.21362200 0.85466000
O 1.06649600 1.51551400 0.19679700
H 0.74845200 -0.33151400 0.42395300
9
energy = -961.639941074
C 0.92858200 1.43782900 2.55977900
F 0.68412300 0.20623400 2.92526000
F -0.16796000 1.97607600 2.04499700
F 1.28433700 2.14439800 3.62087200
S 2.38697900 1.52548000 1.32461900
O 0.68805800 0.17915100 -0.02576300
O 3.14899400 0.33308900 1.61807400
O 1.48853900 1.36372000 -0.02624300
H -0.19877600 0.56385400 -0.06174300
9
energy = -961.64334768
C 3.55648400 0.91815300 -0.97064200
F 3.50631900 -0.38914600 -0.95606000
F 3.86152400 1.37793800 0.22300900
F 4.48875500 1.30429700 -1.83149200
S 1.91815400 1.67413200 -1.59888900
O 1.09249000 0.36524700 0.41074600
O 1.36899100 0.63836300 -2.45561500
O 1.13767000 1.66664400 -0.16601100
H 0.39671000 -0.06887100 -0.10570000
9
energy = -961.6382016500002
C -0.98932700 1.13734100 1.70432600
F -0.30083300 1.26007000 2.81153100
F -1.03709800 -0.14598500 1.35771100
F -2.22099200 1.57028100 1.89797000
S -0.19995900 2.14518300 0.29741600
O 0.97823500 0.20738800 -0.75766500
O 0.22454500 3.36499400 0.94805900
O 1.16634900 1.18637500 0.25591200
H 0.81783900 -0.59004700 -0.23488300
9
energy = -961.6415248300001
C 3.71750700 0.10363900 0.86520600
F 4.05280000 0.33758500 -0.38130400
F 3.55306600 -1.19045300 1.05215300
F 4.67673000 0.53786500 1.66233800
S 2.14280400 1.04877400 1.36135700
O 0.00234300 0.56318200 0.22983100
O 2.40450100 2.43363700 1.02860400
O 1.39386200 0.30094200 0.08690100
H -0.13053600 1.27025600 -0.41673700
9
energy = -961.6434527080002
C 0.83150700 0.59980500 -2.68582700
F -0.46283400 0.71590200 -2.53400200
F 1.19748500 -0.65588800 -2.54948800
F 1.16219500 1.01441600 -3.90151100
S 1.78195300 1.72735600 -1.47058400
O 0.47074200 0.28654300 0.15384700
O 0.85068500 2.80961400 -1.20665700
O 1.78670800 0.69281100 -0.20866100
H 0.13754800 1.05954700 0.63415800
9
energy = -961.6415394210002
C 0.66905600 3.83076500 0.66196900
F 1.47080800 4.03827100 -0.35540800
F 1.36862200 3.73634700 1.77478500
F -0.17380700 4.84228000 0.76470700
S -0.39444200 2.27265900 0.41648200
O 0.68161600 0.05705900 0.24306200
O -1.04096100 2.44632800 -0.86757300
O 1.02321600 1.43849000 0.21869000
H 0.69836200 -0.16479300 -0.69829000
9
energy = -961.6415598300001
C 2.77325100 3.34954900 0.58459100
F 1.71510900 4.08929400 0.35223100
F 3.48123200 3.21689800 -0.51895600
F 3.51615400 3.93143900 1.50847300
S 2.30179400 1.64163800 1.27733500
O 0.96755700 0.07857100 -0.09136300
O 1.45599500 1.91126400 2.42156600
O 1.36522100 1.44503000 -0.07483400
H 0.05929900 0.13554500 0.23646500
9
energy = -961.639477703
C 1.64071700 3.57458300 -1.25231100
F 2.12735200 4.01494700 -0.11719400
F 0.33845000 3.79225100 -1.29670400
F 2.21795900 4.21530900 -2.25163600
S 1.99662100 1.72513800 -1.51312700
O 0.96064100 0.07223300 0.01890400
O 3.43052600 1.59754600 -1.39269300
O 1.26456700 1.46276700 -0.04834300
H -0.00544700 0.08597100 -0.00083000
