9
energy = -961.621212581
C 0.77083200 -1.71014400 0.08447000
F 0.01460800 0.00859300 0.05184700
F 0.31506500 -2.21308900 1.15504800
F 0.26088100 -2.27590800 -0.92798900
S 1.85876300 -0.03119800 -0.00213100
O 2.39172800 -0.22076800 1.31036300
O 2.41058100 -0.35805900 -1.27155300
O 1.75590800 1.54994000 -0.13809200
H 1.52523500 1.93415400 0.71716000
9
energy = -961.6212056270001
C 0.76232500 -1.64547000 0.10345300
F 0.24381300 0.16094000 0.10299600
F 0.33684400 -2.07519900 1.21731800
F 0.09675200 -2.14377500 -0.85232800
S 2.05461100 -0.13163500 -0.10530400
O 2.66779500 -0.38248600 1.16114000
O 2.44661400 -0.54008700 -1.41013100
O 2.15567400 1.44764500 -0.26247600
H 2.05137700 1.86642900 0.60125200
9
energy = -961.6211847000001
C 0.76828200 -1.68721400 0.09189000
F 0.07432800 0.05732000 -0.00667300
F 0.26841000 -2.14412000 1.16251400
F 0.26534500 -2.26372200 -0.91859000
S 1.91682900 -0.05014000 0.00454500
O 2.49445100 -0.28884300 1.28210600
O 2.40356900 -0.37117500 -1.30027600
O 1.87554900 1.53966800 0.00735000
H 1.62772600 1.85887900 -0.86957300
