9
energy = -961.5890094450001
C 0.04053100 -0.03400700 -0.13291400
F -0.36529700 0.08139800 -1.38820000
F -0.45290600 0.99675100 0.55910000
F -0.45040500 -1.14990000 0.37285400
S 1.96966100 -0.07886300 -0.09693100
O 2.02191800 -0.43659500 1.41422800
O 3.41715000 -0.09267100 0.98082400
O 2.04008400 1.48443700 -0.35265400
H 1.42985300 1.98602500 0.20856300
9
energy = -961.5891474399999
C 0.01757100 -0.01554700 -0.01365400
F -0.41968800 0.35119600 -1.20881900
F -0.51335000 0.80806100 0.89356800
F -0.40413900 -1.24120100 0.23653200
S 1.94601600 0.03636100 -0.00875300
O 2.05189300 -0.62565000 1.39302000
O 3.41827700 -0.12746800 1.02291400
O 1.93393600 1.61994600 0.07027000
H 1.32842500 1.95922800 0.74634400
9
energy = -961.59438698
C 0.01204600 0.01014400 -0.00224100
F -0.40604200 0.45564400 -1.17743300
F -0.50998900 0.74831100 0.95239400
F -0.39966400 -1.24191400 0.14568600
S 1.92442200 -0.03256000 0.00184600
O 2.06892800 -0.54789800 1.45751300
O 3.43885100 -0.09328900 1.05341600
O 1.91501200 1.55982100 -0.00015400
H 2.81731800 1.86366200 0.16979600
