9
IRC Reverse Point 9
C    -0.337479    -0.965291    -0.080320
F    -1.616005    -0.909948    -0.404416
F    -0.210856    -1.526146     1.099856
F     0.314007    -1.666394    -0.979588
S     0.363047     0.764342    -0.048308
O     1.652961     0.681906     0.528268
O     0.095778     1.341662    -1.320721
O    -0.593921     1.408335     1.023172
H    -1.349587     1.832189     0.592940
9
IRC Reverse Point 8
C    -0.337479    -0.965291    -0.080320
F    -1.616005    -0.909948    -0.404416
F    -0.210856    -1.526146     1.099856
F     0.314007    -1.666394    -0.979588
S     0.363047     0.764342    -0.048308
O     1.652961     0.681906     0.528268
O     0.095778     1.341662    -1.320721
O    -0.593921     1.408335     1.023172
H    -1.349587     1.832189     0.592940
9
IRC Reverse Point 7
C    -0.337479    -0.965291    -0.080320
F    -1.616005    -0.909948    -0.404416
F    -0.210856    -1.526146     1.099856
F     0.314007    -1.666394    -0.979588
S     0.363047     0.764342    -0.048308
O     1.652961     0.681906     0.528268
O     0.095778     1.341662    -1.320721
O    -0.593921     1.408335     1.023172
H    -1.349587     1.832189     0.592940
9
IRC Reverse Point 6
C    -0.337624    -0.965331    -0.080379
F    -1.615742    -0.910265    -0.405866
F    -0.212100    -1.525765     1.100145
F     0.314903    -1.666564    -0.978767
S     0.362908     0.764408    -0.048476
O     1.653065     0.682125     0.527608
O     0.094822     1.341541    -1.320827
O    -0.593146     1.408478     1.023757
H    -1.349142     1.832030     0.593688
9
IRC Reverse Point 5
C    -0.337291    -0.964345    -0.080457
F    -1.614092    -0.907386    -0.410788
F    -0.216925    -1.522356     1.101692
F     0.318084    -1.668001    -0.975150
S     0.363271     0.764408    -0.049289
O     1.654513     0.680737     0.524163
O     0.091332     1.341778    -1.320719
O    -0.590363     1.408752     1.024816
H    -1.350583     1.827068     0.596616
9
IRC Reverse Point 4
C    -0.335375    -0.958509    -0.080075
F    -1.612578    -0.883669    -0.405857
F    -0.218311    -1.518378     1.101557
F     0.310271    -1.667623    -0.977982
S     0.369122     0.763556    -0.050268
O     1.657067     0.687630     0.530273
O     0.092562     1.332189    -1.324201
O    -0.584015     1.408516     1.023874
H    -1.360798     1.796943     0.593562
9
IRC Reverse Point 3
C    -0.336426    -0.935310    -0.071522
F    -1.631913    -0.802684    -0.297676
F    -0.154107    -1.532107     1.082082
F     0.212710    -1.637428    -1.034881
S     0.402080     0.771981    -0.046148
O     1.661429     0.703884     0.594502
O     0.186794     1.310426    -1.343500
O    -0.587179     1.443749     0.979712
H    -1.435442     1.638143     0.548313
9
IRC Reverse Point 2
C    -0.335899    -0.899094    -0.067724
F    -1.595894    -0.707144    -0.475536
F    -0.337711    -1.427339     1.128925
F     0.261553    -1.699869    -0.912609
S     0.427081     0.791249    -0.083604
O     1.721008     0.763200     0.488431
O     0.144760     1.321749    -1.370965
O    -0.526206     1.403106     1.012173
H    -1.440746     1.414797     0.691792
9
IRC Reverse Point 1
C    -0.338453    -0.913052    -0.054523
F    -1.654822    -0.732899    -0.152727
F    -0.068775    -1.564268     1.048015
F     0.075325    -1.595270    -1.092871
S     0.436494     0.788757    -0.044437
O     1.655370     0.749815     0.673670
O     0.320203     1.270019    -1.376064
O    -0.609675     1.493084     0.898456
H    -1.497721     1.464469     0.511365
9
IRC Reverse Point 0
C    -0.346922    -0.908821    -0.040006
F    -1.658764    -0.698970     0.122224
F     0.086239    -1.667548     0.933324
F    -0.159116    -1.519391    -1.181047
S     0.474908     0.811173    -0.025486
O     1.617193     0.821687     0.812112
O     0.529782     1.248527    -1.375941
O    -0.678333     1.525951     0.769598
H    -1.547042     1.348047     0.396105
9
IRC Forward Point 0
C     0.018660    -0.963872    -0.082931
F    -2.091239    -0.562880     0.187548
F     0.116743    -1.727602     0.906362
F    -0.088704    -1.589574    -1.161704
S     0.489178     0.937670     0.007438
O     1.690848     0.789716     0.760549
O     0.561410     1.227449    -1.383442
O    -0.670205     1.420985     0.722571
H    -1.890832     0.331754     0.452820
9
IRC Forward Point 1
C     0.063111    -0.973209    -0.064233
F    -2.157593    -0.509589     0.088969
F     0.072004    -1.707545     0.950403
F     0.017850    -1.628510    -1.127839
S     0.492907     0.931381     0.016110
O     1.755926     0.779827     0.663056
O     0.447993     1.250018    -1.369037
O    -0.611627     1.369697     0.834027
H    -1.944713     0.351577     0.417755
9
IRC Forward Point 2
C     0.139972    -0.987880    -0.054843
F    -2.286048    -0.452228     0.042728
F     0.055606    -1.701920     0.967434
F     0.132114    -1.661070    -1.105199
S     0.508396     0.929127     0.022213
O     1.811950     0.776899     0.587294
O     0.382146     1.258921    -1.354894
O    -0.551398     1.324395     0.907053
H    -2.056878     0.377402     0.397426
9
IRC Forward Point 3
C     0.070063    -0.971507    -0.066377
F    -2.174874    -0.517335     0.099412
F     0.076252    -1.707578     0.946428
F     0.012575    -1.624237    -1.130865
S     0.499253     0.934675     0.015086
O     1.758010     0.778289     0.669814
O     0.466394     1.249959    -1.371283
O    -0.608679     1.377042     0.823930
H    -1.963136     0.344338     0.423065
9
IRC Forward Point 4
C     0.066980    -0.971328    -0.065319
F    -2.167758    -0.516714     0.096138
F     0.074063    -1.706907     0.948024
F     0.011814    -1.624522    -1.129776
S     0.497272     0.933354     0.015457
O     1.757301     0.778625     0.668003
O     0.461135     1.250293    -1.370426
O    -0.609511     1.374803     0.827232
H    -1.955438     0.346042     0.419878
9
IRC Forward Point 5
C     0.067025    -0.971288    -0.065020
F    -2.167604    -0.516418     0.094934
F     0.073606    -1.706656     0.948507
F     0.012396    -1.624741    -1.129347
S     0.497285     0.933257     0.015602
O     1.757916     0.778556     0.666999
O     0.459826     1.250437    -1.370191
O    -0.608828     1.374390     0.828480
H    -1.955763     0.346110     0.419248
9
IRC Forward Point 6
C     0.067203    -0.971312    -0.064753
F    -2.167612    -0.516103     0.093862
F     0.073152    -1.706438     0.948942
F     0.012930    -1.624994    -1.128943
S     0.497261     0.933187     0.015729
O     1.758447     0.778518     0.666072
O     0.458636     1.250631    -1.369970
O    -0.608267     1.373931     0.829591
H    -1.955890     0.346226     0.418682
9
IRC Forward Point 7
C     0.067203    -0.971312    -0.064753
F    -2.167612    -0.516103     0.093862
F     0.073152    -1.706438     0.948942
F     0.012930    -1.624994    -1.128943
S     0.497261     0.933187     0.015729
O     1.758447     0.778518     0.666072
O     0.458636     1.250631    -1.369970
O    -0.608267     1.373931     0.829591
H    -1.955890     0.346226     0.418682
9
IRC Forward Point 8
C     0.067203    -0.971312    -0.064753
F    -2.167612    -0.516103     0.093862
F     0.073152    -1.706438     0.948942
F     0.012930    -1.624994    -1.128943
S     0.497261     0.933187     0.015729
O     1.758447     0.778518     0.666072
O     0.458636     1.250631    -1.369970
O    -0.608267     1.373931     0.829591
H    -1.955890     0.346226     0.418682
