9
IRC Reverse Point 12
C    -1.070703    -0.787844     0.077885
F    -1.729180    -0.025354    -0.793877
F    -1.933042    -1.263149     0.953371
F    -0.552062    -1.802559    -0.590775
S     0.790455     1.079728    -0.107727
O     1.543691     0.333478    -1.075005
O    -0.128495    -0.084000     0.745080
O     1.700100     1.357651     1.158532
H     2.258055     0.592290     1.370137
9
IRC Reverse Point 11
C    -1.070703    -0.787844     0.077885
F    -1.729180    -0.025354    -0.793877
F    -1.933042    -1.263149     0.953371
F    -0.552062    -1.802559    -0.590775
S     0.790455     1.079728    -0.107727
O     1.543691     0.333478    -1.075005
O    -0.128495    -0.084000     0.745080
O     1.700100     1.357651     1.158532
H     2.258055     0.592290     1.370137
9
IRC Reverse Point 10
C    -1.070703    -0.787844     0.077885
F    -1.729180    -0.025354    -0.793877
F    -1.933042    -1.263149     0.953371
F    -0.552062    -1.802559    -0.590775
S     0.790455     1.079728    -0.107727
O     1.543691     0.333478    -1.075005
O    -0.128495    -0.084000     0.745080
O     1.700100     1.357651     1.158532
H     2.258055     0.592290     1.370137
9
IRC Reverse Point 9
C    -1.070780    -0.787738     0.077831
F    -1.730099    -0.024640    -0.792757
F    -1.932240    -1.263782     0.953760
F    -0.552690    -1.801890    -0.592110
S     0.790746     1.079002    -0.108356
O     1.544814     0.332237    -1.074579
O    -0.128018    -0.084300     0.744683
O     1.699684     1.358262     1.158173
H     2.257402     0.593090     1.370975
9
IRC Reverse Point 8
C    -1.071218    -0.787511     0.077886
F    -1.731892    -0.024128    -0.791376
F    -1.931467    -1.265214     0.954107
F    -0.552971    -1.800644    -0.593502
S     0.791437     1.078051    -0.109371
O     1.547018     0.331017    -1.074224
O    -0.128474    -0.083939     0.744568
O     1.699468     1.358703     1.157608
H     2.256919     0.593906     1.371924
9
IRC Reverse Point 7
C    -1.069236    -0.789463     0.078118
F    -1.714909    -0.020440    -0.797222
F    -1.939565    -1.258322     0.948542
F    -0.555701    -1.808396    -0.588101
S     0.784579     1.078595    -0.103540
O     1.536851     0.335543    -1.074011
O    -0.125664    -0.093385     0.751646
O     1.696640     1.357951     1.160795
H     2.265825     0.598157     1.361392
9
IRC Reverse Point 6
C    -1.072953    -0.786454     0.076732
F    -1.753366    -0.023309    -0.776813
F    -1.915590    -1.274620     0.964547
F    -0.559629    -1.792783    -0.608721
S     0.802699     1.078227    -0.121078
O     1.563371     0.320687    -1.072665
O    -0.124561    -0.080398     0.732118
O     1.704569     1.367185     1.149876
H     2.234280     0.591705     1.393624
9
IRC Reverse Point 5
C    -1.092568    -0.783268     0.065737
F    -1.800317    -0.023154    -0.767166
F    -1.916040    -1.302035     0.955016
F    -0.565089    -1.768331    -0.640648
S     0.820001     1.056458    -0.111098
O     1.579475     0.263392    -1.035822
O    -0.150717    -0.068549     0.723157
O     1.685313     1.367504     1.176049
H     2.318763     0.658223     1.372396
9
IRC Reverse Point 4
C    -1.066366    -0.787598     0.087110
F    -1.652467    -0.045794    -0.853603
F    -1.998429    -1.247405     0.895631
F    -0.491050    -1.814219    -0.525513
S     0.744709     1.081668    -0.049896
O     1.451847     0.374737    -1.081537
O    -0.176031    -0.074467     0.806363
O     1.742370     1.337875     1.147909
H     2.324237     0.575443     1.311158
9
IRC Reverse Point 3
C    -1.055760    -0.791953     0.080379
F    -1.760451     0.007136    -0.719013
F    -1.854557    -1.258837     1.018477
F    -0.621473    -1.803829    -0.642049
S     0.832782     1.064622    -0.178942
O     1.614315     0.346227    -1.143320
O    -0.050032    -0.122399     0.693737
O     1.673500     1.373760     1.127017
H     2.100495     0.585514     1.501333
9
IRC Reverse Point 2
C    -1.016467    -0.761606     0.085749
F    -1.675803    -0.123169    -0.871092
F    -1.883199    -1.213606     0.970384
F    -0.404866    -1.797648    -0.453700
S     0.808051     1.177724    -0.117128
O     1.342419     0.425383    -1.212941
O    -0.158200     0.064788     0.739654
O     1.804824     1.246264     1.123611
H     2.062062     0.382109     1.473083
9
IRC Reverse Point 1
C    -0.984993    -0.707330     0.115517
F    -1.764682    -0.196124    -0.826887
F    -1.754017    -1.296747     1.014877
F    -0.222312    -1.635003    -0.440524
S     0.893523     1.204804    -0.173573
O     1.300482     0.440660    -1.310978
O    -0.253326     0.247693     0.733164
O     1.956502     1.022038     1.005082
H     1.707643     0.320249     1.620942
9
IRC Reverse Point 0
C    -1.014846    -0.731226     0.157847
F    -1.841707    -0.328671    -0.799291
F    -1.754445    -1.275598     1.120860
F    -0.253688    -1.702055    -0.339550
S     1.012305     1.294374    -0.204101
O     1.517092     0.737413    -1.417264
O    -0.283905     0.279048     0.654018
O     1.982916     0.855106     0.974180
H     1.515098     0.271849     1.590922
9
IRC Forward Point 0
C    -1.523473    -1.144484     0.418550
F    -2.705065    -1.652076     0.130768
F    -1.606028    -0.546267     1.611665
F    -0.660489    -2.154841     0.565889
S     2.709717     1.444849     0.349395
O     3.173843     2.379186    -0.629534
O    -1.165304    -0.304117    -0.550489
O     1.442125     0.804415     0.128930
H    -0.296846     0.081811    -0.362429
9
IRC Forward Point 1
C    -1.513270    -1.138552     0.416361
F    -2.700438    -1.644142     0.149885
F    -1.575559    -0.531856     1.606006
F    -0.651594    -2.150466     0.558143
S     2.690005     1.441697     0.362856
O     3.155039     2.360957    -0.622778
O    -1.167273    -0.306520    -0.563749
O     1.430509     0.793046     0.141585
H    -0.298938     0.084312    -0.385562
9
IRC Forward Point 2
C    -1.517079    -1.140708     0.406590
F    -2.710831    -1.614863     0.109023
F    -1.585002    -0.563847     1.611138
F    -0.678263    -2.173964     0.534270
S     2.687053     1.513168     0.381079
O     3.122097     2.318552    -0.727022
O    -1.139282    -0.289828    -0.546561
O     1.454898     0.782224     0.239612
H    -0.265112     0.077742    -0.345383
9
IRC Forward Point 3
C    -1.532665    -1.151882     0.412321
F    -2.722117    -1.613399     0.083664
F    -1.625925    -0.580208     1.617105
F    -0.706623    -2.192741     0.555770
S     2.718596     1.500292     0.341582
O     3.147318     2.366910    -0.701731
O    -1.124478    -0.301546    -0.526800
O     1.469852     0.816702     0.185728
H    -0.255478     0.064348    -0.304892
9
IRC Forward Point 4
C    -1.532877    -1.151825     0.412902
F    -2.722370    -1.613987     0.083334
F    -1.625639    -0.579818     1.617176
F    -0.706292    -2.193315     0.555923
S     2.725100     1.488944     0.368059
O     3.156358     2.386436    -0.725909
O    -1.125063    -0.300844    -0.527570
O     1.454467     0.808216     0.183836
H    -0.255203     0.064670    -0.305005
9
IRC Forward Point 5
C    -1.513702    -1.139022     0.416296
F    -2.700877    -1.643589     0.148148
F    -1.576887    -0.533174     1.606288
F    -0.652866    -2.151631     0.558201
S     2.690785     1.443216     0.362968
O     3.154866     2.361878    -0.625584
O    -1.166117    -0.306520    -0.562808
O     1.431060     0.793584     0.142686
H    -0.297783     0.083734    -0.383447
9
IRC Forward Point 6
C    -1.515780    -1.140975     0.411954
F    -2.696164    -1.648138     0.118517
F    -1.600293    -0.553638     1.610129
F    -0.651229    -2.150848     0.551154
S     2.697673     1.463208     0.362145
O     3.148882     2.333400    -0.677429
O    -1.158303    -0.291696    -0.549431
O     1.435614     0.801299     0.190348
H    -0.291920     0.095864    -0.354641
9
IRC Forward Point 7
C    -1.519529    -1.142523     0.410830
F    -2.687568    -1.661854     0.090019
F    -1.634659    -0.568843     1.613061
F    -0.644177    -2.142391     0.556063
S     2.714010     1.459303     0.347407
O     3.145508     2.325505    -0.701335
O    -1.155165    -0.278950    -0.534943
O     1.442497     0.808653     0.208048
H    -0.292438     0.109575    -0.326405
9
IRC Forward Point 8
C    -1.525875    -1.142480     0.403068
F    -2.692933    -1.636474     0.036845
F    -1.668368    -0.589329     1.612430
F    -0.671483    -2.159482     0.556055
S     2.736966     1.489088     0.332349
O     3.083641     2.322394    -0.777826
O    -1.118342    -0.267238    -0.515464
O     1.479908     0.789136     0.289843
H    -0.255035     0.102862    -0.274555
9
IRC Forward Point 9
C    -1.528019    -1.146233     0.406390
F    -2.695485    -1.637533     0.045108
F    -1.665844    -0.590415     1.613926
F    -0.676065    -2.164766     0.558193
S     2.732535     1.487154     0.330687
O     3.111187     2.329254    -0.754795
O    -1.122409    -0.274648    -0.513779
O     1.473080     0.808125     0.253065
H    -0.260500     0.097537    -0.276048
9
IRC Forward Point 10
C    -1.521293    -1.143290     0.409906
F    -2.689209    -1.656810     0.080691
F    -1.641146    -0.573298     1.613227
F    -0.650796    -2.147028     0.556527
S     2.717851     1.465084     0.343950
O     3.138398     2.326271    -0.712421
O    -1.148360    -0.278068    -0.530563
O     1.448841     0.808544     0.217393
H    -0.285806     0.107071    -0.315963
9
IRC Forward Point 11
C    -1.521851    -1.142650     0.407988
F    -2.690347    -1.650149     0.071203
F    -1.645321    -0.576170     1.612608
F    -0.656321    -2.150527     0.555540
S     2.720998     1.472098     0.342413
O     3.122693     2.324397    -0.728767
O    -1.140546    -0.275807    -0.527739
O     1.456705     0.802121     0.236845
H    -0.277529     0.105163    -0.307344
9
IRC Forward Point 12
C    -1.523164    -1.141621     0.404388
F    -2.692831    -1.636734     0.052458
F    -1.653820    -0.581977     1.611481
F    -0.667915    -2.157997     0.553941
S     2.727167     1.485722     0.338751
O     3.092655     2.321473    -0.759694
O    -1.124848    -0.271834    -0.521846
O     1.472276     0.790574     0.273083
H    -0.261040     0.100871    -0.289817
9
IRC Forward Point 13
C    -1.524839    -1.143233     0.404665
F    -2.694916    -1.634165     0.049150
F    -1.656725    -0.585090     1.612171
F    -0.673160    -2.162425     0.554696
S     2.728650     1.488669     0.336292
O     3.096098     2.323733    -0.760650
O    -1.121849    -0.273347    -0.519144
O     1.473754     0.796067     0.269676
H    -0.258534     0.098267    -0.284110
9
IRC Forward Point 14
C    -1.530129    -1.144266     0.398784
F    -2.702999    -1.605878     0.010096
F    -1.676936    -0.600857     1.611385
F    -0.702973    -2.183486     0.553240
S     2.742192     1.518025     0.325458
O     3.049012     2.322545    -0.817116
O    -1.088732    -0.269011    -0.503935
O     1.503938     0.785357     0.327812
H    -0.224894     0.086046    -0.242978
9
IRC Forward Point 15
C    -1.530672    -1.146411     0.402188
F    -2.701107    -1.615292     0.021300
F    -1.675109    -0.599191     1.612861
F    -0.697640    -2.180004     0.555585
S     2.739257     1.507775     0.324690
O     3.076844     2.327951    -0.791547
O    -1.099121    -0.273409    -0.504807
O     1.492956     0.799833     0.293019
H    -0.236927     0.087223    -0.250542
9
IRC Forward Point 16
C    -1.525863    -1.143797     0.404226
F    -2.696015    -1.630827     0.044256
F    -1.659923    -0.587629     1.612318
F    -0.677466    -2.165534     0.554782
S     2.730528     1.492017     0.334239
O     3.092689     2.324506    -0.766075
O    -1.117868    -0.273324    -0.516596
O     1.477141     0.796721     0.273781
H    -0.254742     0.096343    -0.278185
9
IRC Forward Point 17
C    -1.526446    -1.143802     0.402420
F    -2.697386    -1.623381     0.034932
F    -1.663297    -0.592091     1.612231
F    -0.683949    -2.170456     0.552492
S     2.731434     1.501614     0.333360
O     3.080852     2.319344    -0.782278
O    -1.109836    -0.271443    -0.512788
O     1.483628     0.794758     0.290747
H    -0.246520     0.093933    -0.268370
9
IRC Forward Point 18
C    -1.527556    -1.143812     0.398979
F    -2.699998    -1.609196     0.017168
F    -1.669725    -0.600593     1.612067
F    -0.696301    -2.179834     0.548131
S     2.733162     1.519898     0.331684
O     3.058300     2.309510    -0.813148
O    -1.094534    -0.267857    -0.505533
O     1.495986     0.791018     0.323070
H    -0.230855     0.089341    -0.249672
9
IRC Forward Point 19
C    -1.528983    -1.145054     0.399836
F    -2.700529    -1.610171     0.015942
F    -1.673403    -0.601675     1.612443
F    -0.698278    -2.181152     0.550677
S     2.736113     1.516793     0.327892
O     3.063482     2.315249    -0.808345
O    -1.094248    -0.269530    -0.503901
O     1.495814     0.795584     0.314839
H    -0.231487     0.088433    -0.246638
9
IRC Forward Point 20
C    -1.530225    -1.146590     0.400419
F    -2.702287    -1.610717     0.016393
F    -1.673879    -0.604261     1.613583
F    -0.700052    -2.183399     0.550293
S     2.736187     1.519661     0.328514
O     3.072340     2.315560    -0.807543
O    -1.095249    -0.270414    -0.502823
O     1.494062     0.801028     0.309374
H    -0.232419     0.087608    -0.245463
9
IRC Forward Point 21
C    -1.531043    -1.145933     0.397503
F    -2.702868    -1.598554    -0.000939
F    -1.682493    -0.609734     1.612439
F    -0.710572    -2.190124     0.549220
S     2.740261     1.529556     0.322815
O     3.047065     2.311656    -0.831240
O    -1.080378    -0.267754    -0.496105
O     1.506705     0.795669     0.336566
H    -0.218196     0.083694    -0.227515
9
IRC Forward Point 22
C    -1.531693    -1.146005     0.395573
F    -2.701485    -1.592754    -0.014927
F    -1.691383    -0.616318     1.612219
F    -0.715670    -2.193538     0.547862
S     2.743526     1.535277     0.317496
O     3.033462     2.305282    -0.848494
O    -1.071279    -0.264184    -0.489299
O     1.513471     0.796956     0.354327
H    -0.210470     0.083758    -0.212012
9
IRC Forward Point 23
C    -1.532016    -1.146065     0.394407
F    -2.703792    -1.584440    -0.019542
F    -1.690851    -0.617782     1.611768
F    -0.723156    -2.199233     0.546307
S     2.742615     1.543184     0.317245
O     3.024511     2.303437    -0.857177
O    -1.064060    -0.265382    -0.487677
O     1.518320     0.795718     0.363845
H    -0.203090     0.079039    -0.206430
9
IRC Forward Point 24
C    -1.531668    -1.145956     0.394251
F    -2.703064    -1.585079    -0.019766
F    -1.690785    -0.618636     1.611963
F    -0.721844    -2.198474     0.545282
S     2.741778     1.543727     0.317738
O     3.024971     2.300365    -0.858478
O    -1.064656    -0.264328    -0.487298
O     1.517466     0.796655     0.365270
H    -0.203717     0.080202    -0.206214
9
IRC Forward Point 25
C    -1.531585    -1.146001     0.394164
F    -2.702928    -1.585156    -0.019981
F    -1.690743    -0.619171     1.612080
F    -0.721583    -2.198448     0.544765
S     2.741466     1.544297     0.317966
O     3.025331     2.299008    -0.859331
O    -1.064742    -0.263960    -0.487066
O     1.517107     0.797319     0.366027
H    -0.203843     0.080589    -0.205878
9
IRC Forward Point 26
C    -1.531585    -1.146001     0.394164
F    -2.702928    -1.585156    -0.019981
F    -1.690743    -0.619171     1.612080
F    -0.721583    -2.198448     0.544765
S     2.741466     1.544297     0.317966
O     3.025331     2.299008    -0.859331
O    -1.064742    -0.263960    -0.487066
O     1.517107     0.797319     0.366027
H    -0.203843     0.080589    -0.205878
